! LibreCAL 5mOUNstcbC0A set FACTORY P12_THROUGH (ports ordered 1,2)
# GHz S RI R 50
0.000009000 0.140803 -0.005207 0.857986 -0.001312 0.858128 -0.003612 0.140761 -0.006667
0.000010000 0.140974 -0.004873 0.858012 -0.001767 0.857887 -0.003613 0.140482 -0.00607
0.000011000 0.140567 -0.004422 0.857902 -0.001864 0.857794 -0.003549 0.140264 -0.005754
0.000012000 0.140461 -0.00429 0.857743 -0.001961 0.857534 -0.003465 0.14013 -0.005273
0.000013000 0.140183 -0.004061 0.8577 -0.002108 0.857459 -0.003492 0.140165 -0.005023
0.000014000 0.140141 -0.003842 0.85752 -0.00205 0.857416 -0.003478 0.139951 -0.00463
0.000015000 0.140035 -0.003655 0.85742 -0.002001 0.857219 -0.003376 0.139811 -0.004515
0.000016000 0.139833 -0.003549 0.857469 -0.002266 0.857189 -0.003449 0.139966 -0.004185
0.000017000 0.139759 -0.00339 0.857402 -0.002129 0.857246 -0.003221 0.139825 -0.004126
0.000018000 0.139907 -0.0033 0.857414 -0.001989 0.857195 -0.003149 0.13969 -0.003873
0.000019000 0.139759 -0.003084 0.857325 -0.00206 0.857228 -0.003089 0.139534 -0.003844
0.000020000 0.139733 -0.003068 0.857306 -0.002055 0.857147 -0.002993 0.13969 -0.003544
0.000021000 0.139547 -0.003016 0.857266 -0.002091 0.857109 -0.002955 0.139618 -0.003354
0.000022000 0.139584 -0.002834 0.857168 -0.002091 0.857027 -0.002803 0.139554 -0.003406
0.000023000 0.139512 -0.002823 0.857089 -0.002116 0.85692 -0.002903 0.13947 -0.003348
0.000024000 0.139417 -0.002797 0.857044 -0.002046 0.857 -0.002845 0.13959 -0.00316
0.000025000 0.139537 -0.002753 0.857137 -0.00201 0.856935 -0.00272 0.13936 -0.003155
0.000026000 0.139434 -0.002705 0.857114 -0.001973 0.856876 -0.002723 0.139301 -0.002994
0.000027000 0.139403 -0.002498 0.857105 -0.002122 0.856929 -0.002702 0.139363 -0.003056
0.000028000 0.139369 -0.00254 0.857086 -0.002092 0.85697 -0.002701 0.139246 -0.002841
0.000029000 0.139284 -0.002459 0.857005 -0.00202 0.856849 -0.002628 0.139256 -0.002808
0.000030000 0.139361 -0.002481 0.857014 -0.002039 0.856885 -0.002681 0.139209 -0.00273
0.000031000 0.139354 -0.002488 0.857228 -0.002064 0.856982 -0.002581 0.139195 -0.002621
0.000032000 0.139333 -0.00236 0.857189 -0.002104 0.857058 -0.002622 0.139282 -0.002619
0.000033000 0.139327 -0.002362 0.857149 -0.002138 0.85706 -0.002576 0.139169 -0.002618
0.000034000 0.139224 -0.002462 0.857073 -0.00206 0.856967 -0.002641 0.139176 -0.002475
0.000035000 0.139301 -0.002337 0.857054 -0.00213 0.856937 -0.002537 0.139086 -0.002459
0.000036000 0.139183 -0.002231 0.857134 -0.002128 0.856961 -0.002594 0.139159 -0.002483
0.000037000 0.13918 -0.00228 0.857121 -0.002051 0.856934 -0.002644 0.139014 -0.002407
0.000038000 0.139107 -0.002162 0.857056 -0.002127 0.856969 -0.002592 0.139079 -0.002384
0.000039000 0.139042 -0.002142 0.857193 -0.001998 0.85695 -0.002502 0.139011 -0.002319
0.000040000 0.13906 -0.002045 0.85713 -0.002083 0.856928 -0.002465 0.139025 -0.002393
0.000041000 0.139043 -0.002168 0.857018 -0.002236 0.856898 -0.002618 0.138967 -0.002369
0.000042000 0.138935 -0.001822 0.857128 -0.00216 0.856869 -0.002496 0.139003 -0.002435
0.000043000 0.13898 -0.002013 0.856928 -0.002165 0.856851 -0.002507 0.138813 -0.002181
0.000044000 0.139035 -0.002129 0.857066 -0.002216 0.856944 -0.002614 0.138959 -0.002253
0.000045000 0.138941 -0.001896 0.857048 -0.002182 0.857074 -0.002504 0.13896 -0.002285
0.000046000 0.138993 -0.00197 0.857041 -0.002289 0.856904 -0.00263 0.138893 -0.002246
0.000047000 0.138989 -0.001978 0.857047 -0.002113 0.857014 -0.0025 0.138876 -0.002206
0.000048000 0.138837 -0.002003 0.857029 -0.002127 0.856922 -0.002505 0.139005 -0.002132
0.000049000 0.138862 -0.001965 0.8571 -0.002054 0.857003 -0.002545 0.138978 -0.00205
0.000050000 0.138907 -0.001888 0.857079 -0.002018 0.857002 -0.00237 0.138842 -0.002134
0.000051000 0.138891 -0.001974 0.856964 -0.00205 0.856861 -0.002278 0.138912 -0.001989
0.000052000 0.138915 -0.001891 0.856977 -0.002146 0.8568 -0.002554 0.139036 -0.002152
0.000053000 0.138874 -0.001946 0.857002 -0.002141 0.85678 -0.002489 0.138955 -0.002132
0.000054000 0.139006 -0.001932 0.857135 -0.00225 0.856901 -0.00248 0.138929 -0.002189
0.000055000 0.139037 -0.001878 0.857002 -0.002271 0.85682 -0.002575 0.13884 -0.002199
0.000056000 0.138942 -0.001878 0.857012 -0.002053 0.856822 -0.002438 0.138817 -0.002094
0.000057000 0.139033 -0.00194 0.856967 -0.002293 0.856859 -0.002515 0.138866 -0.001974
0.000058000 0.13896 -0.001937 0.857136 -0.002234 0.856935 -0.002469 0.13895 -0.001993
0.000059000 0.138885 -0.00179 0.85701 -0.002092 0.856872 -0.002382 0.138942 -0.001974
0.000060000 0.138925 -0.001699 0.856992 -0.00214 0.856896 -0.002415 0.138774 -0.002096
0.000061000 0.138984 -0.002049 0.85699 -0.002266 0.856954 -0.002483 0.138944 -0.001893
0.000062000 0.138803 -0.001795 0.856991 -0.002188 0.856818 -0.002507 0.138943 -0.00201
0.000063000 0.139114 -0.001835 0.857111 -0.002249 0.85686 -0.002467 0.138762 -0.001912
0.000064000 0.139002 -0.001767 0.857127 -0.002168 0.857003 -0.002449 0.139013 -0.00213
0.000065000 0.138874 -0.001915 0.856985 -0.002174 0.856858 -0.002506 0.138949 -0.001981
0.000066000 0.138944 -0.001905 0.857033 -0.002204 0.856991 -0.00251 0.138919 -0.001992
0.000067000 0.138981 -0.001861 0.857048 -0.002255 0.856863 -0.002467 0.138914 -0.001903
0.000068000 0.138982 -0.001904 0.857091 -0.002252 0.856898 -0.002484 0.138982 -0.002003
0.000069000 0.139033 -0.001845 0.856976 -0.002278 0.856842 -0.002454 0.138806 -0.002017
0.000070000 0.138931 -0.001867 0.857151 -0.002304 0.856951 -0.002523 0.13901 -0.002064
0.000071000 0.138986 -0.001888 0.856962 -0.002255 0.856891 -0.002532 0.138921 -0.002101
0.000072000 0.138963 -0.001875 0.857072 -0.002339 0.856979 -0.002666 0.138939 -0.0021
0.000073000 0.138908 -0.001996 0.856901 -0.002299 0.856864 -0.002556 0.13897 -0.002018
0.000074000 0.139021 -0.001918 0.857075 -0.002339 0.856988 -0.002526 0.139007 -0.002085
0.000075000 0.139019 -0.002017 0.856967 -0.002364 0.856879 -0.002513 0.138964 -0.001964
0.000076000 0.139025 -0.001902 0.857056 -0.002423 0.856963 -0.00258 0.139093 -0.00202
0.000077000 0.138962 -0.002046 0.856863 -0.002465 0.856834 -0.002596 0.13893 -0.002048
0.000078000 0.139053 -0.002122 0.856961 -0.002395 0.856922 -0.002659 0.138927 -0.00202
0.000079000 0.138893 -0.001982 0.856826 -0.002445 0.856805 -0.002608 0.139024 -0.002027
0.000080000 0.138949 -0.001906 0.856839 -0.002285 0.856797 -0.002495 0.138943 -0.002044
0.000081000 0.138991 -0.002038 0.856994 -0.002405 0.856815 -0.002492 0.138945 -0.002148
0.000082000 0.139023 -0.002108 0.856902 -0.002466 0.856891 -0.00256 0.138978 -0.001955
0.000083000 0.138945 -0.002011 0.856997 -0.002342 0.856863 -0.00261 0.138859 -0.002099
0.000084000 0.138936 -0.002086 0.856952 -0.002551 0.856936 -0.002628 0.139138 -0.002045
0.000085000 0.138916 -0.002088 0.856907 -0.002488 0.856827 -0.00268 0.138965 -0.002208
0.000086000 0.138976 -0.002117 0.856908 -0.00271 0.856836 -0.002822 0.138917 -0.002085
0.000087000 0.138991 -0.002001 0.857012 -0.002431 0.856771 -0.002732 0.138953 -0.002188
0.000088000 0.138901 -0.002059 0.857015 -0.0026 0.856769 -0.00275 0.139091 -0.002172
0.000089000 0.138849 -0.002132 0.856838 -0.002595 0.856679 -0.002786 0.138983 -0.001983
0.000090000 0.1389 -0.002074 0.856804 -0.00263 0.856717 -0.002762 0.138811 -0.002213
0.000091000 0.138887 -0.002092 0.856914 -0.002594 0.856784 -0.002821 0.13893 -0.002309
0.000092000 0.138861 -0.002296 0.856899 -0.002812 0.856835 -0.002989 0.138991 -0.002231
0.000093000 0.138825 -0.002218 0.856947 -0.002779 0.856796 -0.002916 0.139064 -0.002254
0.000094000 0.138896 -0.002171 0.856911 -0.00278 0.856784 -0.002903 0.138897 -0.002219
0.000095000 0.138893 -0.00225 0.856872 -0.002749 0.856803 -0.002869 0.139009 -0.002179
0.000096000 0.138723 -0.00227 0.856863 -0.002784 0.856705 -0.002947 0.139019 -0.002172
0.000097000 0.138715 -0.002205 0.85686 -0.002641 0.856752 -0.002796 0.138998 -0.002374
0.000098000 0.138836 -0.002329 0.856707 -0.002868 0.856666 -0.003119 0.138903 -0.00219
0.000099000 0.138865 -0.002344 0.856866 -0.00294 0.856809 -0.003053 0.13899 -0.002283
0.000100000 0.13874 -0.002263 0.85676 -0.002821 0.856639 -0.003006 0.138873 -0.002331
0.000110000 0.13874 -0.002542 0.85685 -0.003134 0.856748 -0.003257 0.138876 -0.002564
0.000120000 0.138808 -0.002539 0.85666 -0.003221 0.856562 -0.003195 0.138753 -0.002505
0.000130000 0.138776 -0.00273 0.856552 -0.003375 0.856373 -0.003534 0.138745 -0.002589
0.000140000 0.138682 -0.002797 0.856714 -0.003539 0.856568 -0.003549 0.13881 -0.002857
0.000150000 0.13855 -0.002929 0.856493 -0.003674 0.856377 -0.003854 0.138731 -0.002926
0.000160000 0.138521 -0.003218 0.856523 -0.003905 0.856362 -0.003963 0.138768 -0.00302
0.000170000 0.138568 -0.003174 0.856415 -0.004033 0.856301 -0.004025 0.138621 -0.003331
0.000180000 0.138414 -0.003368 0.85627 -0.004388 0.856057 -0.004427 0.138568 -0.003467
0.000190000 0.138368 -0.003572 0.856286 -0.004475 0.856109 -0.004523 0.138544 -0.003626
0.000200000 0.138224 -0.003688 0.856206 -0.004646 0.856033 -0.004612 0.138395 -0.003628
0.000210000 0.138179 -0.003913 0.856041 -0.004876 0.855929 -0.004925 0.138352 -0.003936
0.000220000 0.138165 -0.003965 0.855955 -0.005027 0.855964 -0.005125 0.138282 -0.004096
0.000230000 0.138176 -0.003986 0.855967 -0.005044 0.855843 -0.00513 0.138175 -0.004165
0.000240000 0.137974 -0.004084 0.855875 -0.005218 0.855694 -0.005361 0.138146 -0.004253
0.000250000 0.137976 -0.004387 0.855788 -0.005517 0.855641 -0.005635 0.137961 -0.00438
0.000260000 0.137827 -0.004551 0.855611 -0.005537 0.855661 -0.005555 0.137916 -0.004462
0.000270000 0.13782 -0.004674 0.855478 -0.005723 0.85534 -0.005902 0.137724 -0.004604
0.000280000 0.137686 -0.004911 0.855512 -0.006032 0.855303 -0.005999 0.137758 -0.004705
0.000290000 0.137559 -0.004939 0.855316 -0.00609 0.855262 -0.006251 0.137604 -0.004897
0.000300000 0.137442 -0.004923 0.855339 -0.006191 0.855269 -0.006287 0.137614 -0.005088
0.000310000 0.137392 -0.005256 0.855044 -0.006537 0.855024 -0.006472 0.137446 -0.005119
0.000320000 0.137351 -0.005336 0.855086 -0.006716 0.855007 -0.00666 0.137396 -0.005311
0.000330000 0.137175 -0.005383 0.855054 -0.006757 0.854956 -0.006817 0.137323 -0.005434
0.000340000 0.137205 -0.005449 0.855043 -0.006817 0.855007 -0.006915 0.137336 -0.005465
0.000350000 0.136899 -0.005547 0.854802 -0.00694 0.85472 -0.007015 0.137116 -0.005739
0.000360000 0.136744 -0.005715 0.854679 -0.007243 0.854633 -0.007258 0.137068 -0.005781
0.000370000 0.136903 -0.005952 0.854668 -0.007361 0.854467 -0.007274 0.136871 -0.005824
0.000380000 0.136773 -0.006015 0.854395 -0.007584 0.854257 -0.007549 0.136753 -0.005992
0.000390000 0.136621 -0.006032 0.854546 -0.007544 0.854308 -0.007683 0.136763 -0.006106
0.000400000 0.13648 -0.006135 0.854237 -0.007649 0.854151 -0.007685 0.136548 -0.006148
0.000410000 0.136447 -0.006235 0.854174 -0.00784 0.854118 -0.007929 0.136449 -0.006301
0.000420000 0.136461 -0.006403 0.854183 -0.008045 0.854058 -0.008085 0.136368 -0.006438
0.000430000 0.136122 -0.006504 0.853818 -0.008163 0.853801 -0.008231 0.136243 -0.006517
0.000440000 0.136002 -0.006547 0.85388 -0.008227 0.853765 -0.008185 0.136275 -0.006628
0.000450000 0.135962 -0.006537 0.85374 -0.008202 0.853685 -0.008295 0.136017 -0.006742
0.000460000 0.135913 -0.006741 0.853732 -0.008328 0.853625 -0.008361 0.135997 -0.006678
0.000470000 0.13574 -0.006933 0.853558 -0.008575 0.853411 -0.008587 0.135898 -0.006792
0.000480000 0.135659 -0.00686 0.853537 -0.008485 0.853434 -0.008588 0.135737 -0.006938
0.000490000 0.135475 -0.006986 0.853381 -0.008747 0.853226 -0.00875 0.135631 -0.007019
0.000500000 0.135578 -0.007018 0.853291 -0.008641 0.853087 -0.008787 0.135433 -0.006949
0.000510000 0.135446 -0.007102 0.853231 -0.009017 0.853135 -0.008969 0.13539 -0.00727
0.000520000 0.13517 -0.007239 0.853041 -0.009226 0.852909 -0.009223 0.13539 -0.007373
0.000530000 0.135181 -0.007219 0.852959 -0.009027 0.852863 -0.008985 0.135229 -0.007286
0.000540000 0.134987 -0.007354 0.852768 -0.009271 0.852797 -0.009295 0.135191 -0.007289
0.000550000 0.134829 -0.007473 0.852672 -0.00933 0.85263 -0.009428 0.13504 -0.007503
0.000560000 0.134703 -0.007469 0.852503 -0.00931 0.8525 -0.009429 0.135051 -0.007452
0.000570000 0.134712 -0.007396 0.852551 -0.009425 0.852471 -0.009362 0.134902 -0.007575
0.000580000 0.134554 -0.007567 0.852441 -0.00964 0.852379 -0.00969 0.13477 -0.007651
0.000590000 0.134569 -0.007663 0.852399 -0.009712 0.852369 -0.009625 0.134473 -0.007592
0.000600000 0.134421 -0.00785 0.852216 -0.009756 0.852114 -0.009646 0.134448 -0.007598
0.000610000 0.134218 -0.007851 0.85214 -0.00983 0.851975 -0.009816 0.134339 -0.007804
0.000620000 0.13422 -0.007785 0.852049 -0.009881 0.851975 -0.010025 0.134275 -0.007879
0.000630000 0.134132 -0.007871 0.851935 -0.009855 0.851775 -0.009938 0.13414 -0.007872
0.000640000 0.133906 -0.007955 0.851792 -0.010076 0.851717 -0.009979 0.134079 -0.007866
0.000650000 0.133982 -0.007949 0.851756 -0.010198 0.851752 -0.010102 0.133864 -0.008008
0.000660000 0.133774 -0.008128 0.851546 -0.010208 0.851457 -0.010221 0.133882 -0.007868
0.000670000 0.133623 -0.008042 0.851535 -0.010215 0.851458 -0.010218 0.133748 -0.008053
0.000680000 0.133552 -0.008115 0.851545 -0.010415 0.851423 -0.010421 0.133727 -0.008217
0.000690000 0.13346 -0.008162 0.851316 -0.010355 0.851141 -0.010382 0.133656 -0.008116
0.000700000 0.133421 -0.008274 0.851203 -0.010614 0.851157 -0.010561 0.133433 -0.00824
0.000710000 0.133266 -0.008218 0.851194 -0.010577 0.851151 -0.010606 0.133417 -0.008133
0.000720000 0.133161 -0.00817 0.851082 -0.010717 0.850898 -0.010818 0.133336 -0.008459
0.000730000 0.133084 -0.008389 0.85097 -0.010802 0.850976 -0.01087 0.133386 -0.008342
0.000740000 0.133 -0.008298 0.850922 -0.010831 0.850754 -0.010904 0.133088 -0.008404
0.000750000 0.133011 -0.008481 0.85083 -0.010823 0.850797 -0.010775 0.132955 -0.00833
0.000760000 0.132841 -0.008435 0.850639 -0.010859 0.850535 -0.010951 0.132905 -0.00834
0.000770000 0.132714 -0.008384 0.850529 -0.010743 0.850349 -0.010818 0.132889 -0.008372
0.000780000 0.132737 -0.008352 0.850507 -0.010949 0.850345 -0.010995 0.132566 -0.008599
0.000790000 0.132556 -0.00848 0.85046 -0.01107 0.85038 -0.011076 0.132638 -0.008532
0.000800000 0.132424 -0.008446 0.850377 -0.011098 0.850319 -0.011079 0.132605 -0.008543
0.000810000 0.132427 -0.008591 0.850312 -0.011081 0.850127 -0.011203 0.132395 -0.008532
0.000820000 0.132342 -0.008598 0.850171 -0.011078 0.850008 -0.011147 0.132315 -0.00853
0.000830000 0.132218 -0.008572 0.850003 -0.011209 0.849871 -0.011272 0.132266 -0.008576
0.000840000 0.132038 -0.008672 0.849848 -0.011434 0.849831 -0.011423 0.132105 -0.008602
0.000850000 0.132092 -0.008736 0.849976 -0.011445 0.84982 -0.011414 0.132196 -0.008726
0.000860000 0.131983 -0.008632 0.849758 -0.011342 0.849744 -0.011365 0.132053 -0.008678
0.000870000 0.131999 -0.008584 0.849853 -0.011318 0.849633 -0.011432 0.131853 -0.00872
0.000880000 0.131669 -0.00863 0.849625 -0.011577 0.849567 -0.011546 0.131861 -0.008804
0.000890000 0.131558 -0.00867 0.849462 -0.011602 0.849457 -0.011532 0.131727 -0.008742
0.000900000 0.131555 -0.008707 0.849346 -0.011558 0.849276 -0.011661 0.131603 -0.008853
0.000910000 0.131346 -0.008801 0.849411 -0.011658 0.849271 -0.011733 0.131648 -0.008907
0.000920000 0.131465 -0.0087 0.849216 -0.011652 0.849163 -0.011714 0.131515 -0.008805
0.000930000 0.13132 -0.008907 0.849133 -0.011847 0.849018 -0.011878 0.131427 -0.008859
0.000940000 0.131253 -0.008803 0.848997 -0.011696 0.848906 -0.011788 0.131251 -0.008858
0.000950000 0.131272 -0.008799 0.849144 -0.011919 0.848949 -0.011957 0.13121 -0.008858
0.000960000 0.130982 -0.008794 0.848864 -0.01175 0.848712 -0.011871 0.131229 -0.008891
0.000970000 0.130966 -0.008841 0.84885 -0.012007 0.848802 -0.012078 0.131054 -0.00904
0.000980000 0.130803 -0.008852 0.848716 -0.011857 0.848655 -0.011795 0.131031 -0.008825
0.000990000 0.130835 -0.008916 0.848734 -0.012001 0.848732 -0.012142 0.131004 -0.008939
0.001000000 0.130781 -0.008878 0.848556 -0.012002 0.848421 -0.012086 0.13083 -0.008942
0.001100000 0.130084 -0.00904 0.847889 -0.01243 0.847811 -0.012542 0.13004 -0.009152
0.001200000 0.129232 -0.009011 0.847168 -0.012647 0.847177 -0.012651 0.129407 -0.009097
0.001300000 0.128888 -0.008993 0.84662 -0.012967 0.846429 -0.013244 0.128573 -0.009156
0.001400000 0.128137 -0.008959 0.846019 -0.013299 0.845915 -0.013282 0.128131 -0.009126
0.001500000 0.12763 -0.008874 0.845537 -0.013502 0.84538 -0.013434 0.127599 -0.009065
0.001600000 0.127133 -0.008826 0.844957 -0.013638 0.844914 -0.013763 0.127189 -0.008892
0.001700000 0.126737 -0.008838 0.844452 -0.013983 0.844297 -0.014026 0.126635 -0.008816
0.001800000 0.126331 -0.008664 0.844193 -0.014074 0.844059 -0.014129 0.126295 -0.008874
0.001900000 0.125896 -0.008598 0.843823 -0.014262 0.843821 -0.01427 0.12587 -0.008665
0.002000000 0.125576 -0.008362 0.843334 -0.014392 0.843228 -0.014348 0.125566 -0.008545
0.002100000 0.125336 -0.008251 0.843131 -0.01455 0.843034 -0.014699 0.12536 -0.008428
0.002200000 0.125016 -0.00825 0.84285 -0.01474 0.842664 -0.014743 0.124932 -0.008292
0.002300000 0.124616 -0.008024 0.842481 -0.014807 0.84242 -0.01486 0.124681 -0.008302
0.002400000 0.124497 -0.007967 0.842226 -0.015014 0.84207 -0.01502 0.124364 -0.008112
0.002500000 0.124232 -0.007852 0.842017 -0.015252 0.841913 -0.015197 0.124228 -0.007961
0.002600000 0.123861 -0.007748 0.841689 -0.015434 0.841643 -0.01548 0.12403 -0.007943
0.002700000 0.12374 -0.007745 0.841507 -0.015675 0.841421 -0.015733 0.12376 -0.007929
0.002800000 0.123454 -0.007624 0.841305 -0.015745 0.841243 -0.015747 0.123599 -0.007742
0.002900000 0.123454 -0.007501 0.841192 -0.015995 0.841128 -0.016119 0.123375 -0.007692
0.003000000 0.123073 -0.007507 0.840948 -0.016239 0.840835 -0.016184 0.123205 -0.007541
0.003100000 0.12307 -0.007368 0.840657 -0.016421 0.840617 -0.016443 0.122972 -0.00747
0.003200000 0.122897 -0.007263 0.840369 -0.016697 0.840464 -0.016698 0.12281 -0.007411
0.003300000 0.122734 -0.007122 0.840436 -0.01662 0.840459 -0.016583 0.122805 -0.007191
0.003400000 0.122577 -0.00703 0.840288 -0.016869 0.840115 -0.016825 0.122597 -0.007192
0.003500000 0.122439 -0.006945 0.840072 -0.016996 0.840032 -0.017074 0.122327 -0.007195
0.003600000 0.122299 -0.006777 0.840231 -0.017228 0.840044 -0.0172 0.122339 -0.007075
0.003700000 0.122098 -0.006823 0.839841 -0.0175 0.839794 -0.017525 0.122169 -0.006901
0.003800000 0.121977 -0.006692 0.839763 -0.017602 0.839556 -0.017632 0.122057 -0.00685
0.003900000 0.121908 -0.006696 0.839549 -0.017897 0.839627 -0.01787 0.121872 -0.006777
0.004000000 0.12172 -0.006567 0.839426 -0.018093 0.839352 -0.018024 0.121811 -0.006701
0.004100000 0.121813 -0.006441 0.839374 -0.018313 0.839274 -0.018296 0.121694 -0.006707
0.004200000 0.121541 -0.006497 0.839265 -0.01855 0.839202 -0.018565 0.121815 -0.006645
0.004300000 0.121616 -0.006363 0.839139 -0.018848 0.839065 -0.018751 0.121476 -0.006472
0.004400000 0.121517 -0.00632 0.839121 -0.019009 0.839024 -0.019034 0.121424 -0.006595
0.004500000 0.121511 -0.006331 0.83906 -0.019239 0.838946 -0.019202 0.121362 -0.006411
0.004600000 0.121243 -0.006183 0.838861 -0.019409 0.83878 -0.019503 0.121333 -0.006467
0.004700000 0.121247 -0.006159 0.83884 -0.019522 0.838765 -0.01954 0.121317 -0.006295
0.004800000 0.121212 -0.005952 0.838741 -0.019696 0.838596 -0.019817 0.121079 -0.006258
0.004900000 0.121138 -0.005978 0.838663 -0.019956 0.83857 -0.020003 0.121036 -0.006172
0.005000000 0.121055 -0.005843 0.838454 -0.020176 0.838343 -0.020169 0.120954 -0.006226
0.005100000 0.121026 -0.005957 0.838434 -0.020421 0.838365 -0.020397 0.120886 -0.005985
0.005200000 0.120975 -0.00585 0.838397 -0.020713 0.838288 -0.020689 0.120872 -0.006104
0.005300000 0.120902 -0.005724 0.838314 -0.020867 0.838274 -0.021026 0.120949 -0.006164
0.005400000 0.120628 -0.005788 0.83812 -0.021032 0.838113 -0.021077 0.120832 -0.005985
0.005500000 0.120791 -0.00561 0.838109 -0.021377 0.838028 -0.021493 0.120721 -0.00607
0.005600000 0.120677 -0.005689 0.838165 -0.021661 0.838073 -0.021739 0.120558 -0.005946
0.005700000 0.12062 -0.00552 0.837972 -0.021733 0.837894 -0.02173 0.120696 -0.005871
0.005800000 0.120683 -0.005611 0.838003 -0.022036 0.837851 -0.022096 0.120505 -0.005799
0.005900000 0.120572 -0.005571 0.837871 -0.022201 0.83779 -0.022264 0.120642 -0.005773
0.006000000 0.12056 -0.005442 0.837829 -0.022536 0.837794 -0.022527 0.120491 -0.005788
0.006100000 0.120392 -0.005411 0.837754 -0.022782 0.837676 -0.022758 0.120471 -0.005689
0.006200000 0.120474 -0.005397 0.837705 -0.022951 0.837585 -0.022991 0.120439 -0.005613
0.006300000 0.120426 -0.005378 0.837669 -0.023264 0.837619 -0.023353 0.120342 -0.005674
0.006400000 0.120394 -0.005284 0.83766 -0.023472 0.837483 -0.023609 0.12036 -0.005642
0.006500000 0.120402 -0.005236 0.837622 -0.023789 0.837487 -0.023789 0.120259 -0.00559
0.006600000 0.120344 -0.005249 0.83754 -0.023995 0.837504 -0.024059 0.120212 -0.005572
0.006700000 0.12032 -0.005158 0.837525 -0.024391 0.837421 -0.02437 0.120163 -0.005579
0.006800000 0.120179 -0.005197 0.837471 -0.024529 0.837357 -0.024612 0.120146 -0.005465
0.006900000 0.120201 -0.00515 0.837489 -0.024735 0.837445 -0.024738 0.120162 -0.005487
0.007000000 0.120214 -0.005039 0.837367 -0.025056 0.837236 -0.025125 0.120047 -0.005523
0.007100000 0.120132 -0.005058 0.837371 -0.025321 0.837416 -0.025321 0.120119 -0.005404
0.007200000 0.120049 -0.004911 0.837135 -0.025374 0.837276 -0.025444 0.120131 -0.005439
0.007300000 0.120189 -0.005014 0.837189 -0.025789 0.837095 -0.025792 0.119964 -0.005342
0.007400000 0.120119 -0.005022 0.83711 -0.026026 0.836976 -0.026028 0.119943 -0.005277
0.007500000 0.120058 -0.004999 0.837059 -0.0263 0.837076 -0.026224 0.119872 -0.005307
0.007600000 0.119977 -0.004913 0.836997 -0.026475 0.83693 -0.026517 0.119852 -0.005344
0.007700000 0.119995 -0.004956 0.837042 -0.026743 0.836906 -0.026727 0.11987 -0.005208
0.007800000 0.119994 -0.004865 0.836973 -0.026934 0.836893 -0.026982 0.119869 -0.005245
0.007900000 0.119924 -0.00486 0.8369 -0.027239 0.836892 -0.027291 0.119888 -0.005226
0.008000000 0.119891 -0.004818 0.836782 -0.027524 0.836705 -0.027447 0.119792 -0.005191
0.008100000 0.11991 -0.004827 0.836865 -0.027717 0.836711 -0.027768 0.119735 -0.005104
0.008200000 0.119881 -0.004781 0.836841 -0.027939 0.83666 -0.028029 0.119729 -0.005144
0.008300000 0.11983 -0.004736 0.836803 -0.028115 0.836605 -0.028233 0.119739 -0.005097
0.008400000 0.119973 -0.00474 0.836776 -0.028487 0.836614 -0.02849 0.119639 -0.005114
0.008500000 0.119829 -0.00467 0.836668 -0.028621 0.836627 -0.028675 0.119711 -0.005198
0.008600000 0.119865 -0.004744 0.83665 -0.029025 0.836679 -0.029065 0.119677 -0.005053
0.008700000 0.119858 -0.004698 0.836718 -0.029325 0.836527 -0.02931 0.119578 -0.005057
0.008800000 0.119755 -0.004645 0.836622 -0.029465 0.836498 -0.029612 0.119593 -0.005039
0.008900000 0.119778 -0.00472 0.836557 -0.029844 0.836463 -0.029833 0.119582 -0.005045
0.009000000 0.119685 -0.00463 0.836477 -0.029995 0.836377 -0.029998 0.119598 -0.005002
0.009100000 0.119746 -0.004577 0.836385 -0.030284 0.836302 -0.030372 0.119553 -0.004986
0.009200000 0.119834 -0.004636 0.836469 -0.030583 0.836361 -0.030551 0.119479 -0.004939
0.009300000 0.119709 -0.004622 0.836371 -0.030849 0.836324 -0.030863 0.119497 -0.005012
0.009400000 0.119728 -0.004534 0.836306 -0.030449 0.836213 -0.030493 0.119574 -0.004981
0.009500000 0.119738 -0.004579 0.83631 -0.030735 0.836212 -0.030732 0.119517 -0.004955
0.009600000 0.119754 -0.004522 0.836284 -0.031014 0.836141 -0.031045 0.119479 -0.004993
0.009700000 0.119702 -0.004563 0.836257 -0.031246 0.836142 -0.031265 0.119491 -0.004896
0.009800000 0.119721 -0.004512 0.836175 -0.031486 0.836125 -0.031532 0.119422 -0.004914
0.009900000 0.119725 -0.004488 0.836194 -0.031722 0.836074 -0.031771 0.119454 -0.004914
0.010000000 0.119662 -0.0045 0.836171 -0.031995 0.836056 -0.031997 0.119447 -0.00493
0.011000000 0.119593 -0.004365 0.835807 -0.034612 0.835683 -0.034657 0.119245 -0.00488
0.012000000 0.119537 -0.004389 0.835527 -0.037299 0.835428 -0.037318 0.119203 -0.004804
0.013000000 0.119479 -0.004381 0.835258 -0.039954 0.835176 -0.039963 0.119117 -0.004788
0.014000000 0.119439 -0.004371 0.834988 -0.042645 0.834899 -0.042645 0.118976 -0.004777
0.015000000 0.119346 -0.004428 0.834646 -0.045341 0.834545 -0.045365 0.118986 -0.004851
0.016000000 0.119368 -0.004468 0.834411 -0.048043 0.834305 -0.048043 0.118859 -0.004886
0.017000000 0.119231 -0.004531 0.834093 -0.050766 0.834015 -0.050787 0.118849 -0.004929
0.018000000 0.119307 -0.004626 0.833789 -0.053544 0.833727 -0.053536 0.118781 -0.004979
0.019000000 0.119151 -0.004668 0.83347 -0.056241 0.833423 -0.056228 0.118851 -0.005031
0.020000000 0.119032 -0.004819 0.83317 -0.05893 0.833116 -0.058963 0.118797 -0.005067
0.021000000 0.11903 -0.004845 0.832837 -0.061647 0.832776 -0.061684 0.118846 -0.005177
0.022000000 0.119029 -0.004903 0.832503 -0.064372 0.832459 -0.064443 0.118732 -0.005297
0.023000000 0.118921 -0.004972 0.832168 -0.067127 0.832115 -0.067151 0.11876 -0.005406
0.024000000 0.118866 -0.005078 0.831915 -0.069819 0.831838 -0.069935 0.118741 -0.005499
0.025000000 0.118837 -0.005136 0.831525 -0.072555 0.831432 -0.07261 0.118703 -0.005615
0.026000000 0.118835 -0.0052 0.831167 -0.075294 0.831079 -0.075388 0.118663 -0.005785
0.027000000 0.118762 -0.005326 0.830765 -0.078057 0.830719 -0.078106 0.118614 -0.00586
0.028000000 0.118736 -0.005414 0.830409 -0.080818 0.83034 -0.080845 0.118661 -0.005995
0.029000000 0.118679 -0.005513 0.830049 -0.08349 0.82995 -0.083566 0.118598 -0.006114
0.030000000 0.118654 -0.00557 0.829653 -0.086207 0.829542 -0.086323 0.118624 -0.006225
0.031000000 0.118637 -0.005747 0.829279 -0.088955 0.82916 -0.089051 0.118617 -0.00634
0.032000000 0.118615 -0.005863 0.828841 -0.091709 0.82876 -0.091775 0.118544 -0.006449
0.033000000 0.118564 -0.005921 0.82843 -0.094441 0.82833 -0.094491 0.118554 -0.006616
0.034000000 0.118532 -0.006024 0.828008 -0.097162 0.827921 -0.097197 0.118534 -0.006718
0.035000000 0.118466 -0.006135 0.827586 -0.099914 0.827458 -0.099943 0.11855 -0.00688
0.036000000 0.118519 -0.006254 0.827152 -0.102643 0.82702 -0.102693 0.118454 -0.006983
0.037000000 0.118443 -0.006308 0.826679 -0.10534 0.826546 -0.105375 0.118501 -0.007117
0.038000000 0.118377 -0.006425 0.826229 -0.108035 0.826141 -0.108118 0.118566 -0.007255
0.039000000 0.118407 -0.006558 0.825806 -0.110803 0.825703 -0.11078 0.11852 -0.007393
0.040000000 0.118367 -0.006635 0.825306 -0.113509 0.825195 -0.113542 0.11848 -0.007568
0.041000000 0.118431 -0.006722 0.824781 -0.116224 0.82466 -0.116244 0.118402 -0.007671
0.042000000 0.118382 -0.006849 0.824375 -0.118906 0.824201 -0.118883 0.118451 -0.007828
0.043000000 0.118394 -0.006919 0.823836 -0.121623 0.823686 -0.121631 0.118408 -0.007976
0.044000000 0.118307 -0.007106 0.82327 -0.124322 0.82315 -0.12435 0.118444 -0.008098
0.045000000 0.118319 -0.007184 0.822784 -0.127053 0.822685 -0.127033 0.118448 -0.008207
0.046000000 0.118317 -0.007279 0.822233 -0.129752 0.822113 -0.129729 0.118397 -0.008327
0.047000000 0.118287 -0.007404 0.821724 -0.132458 0.821588 -0.132437 0.118414 -0.008469
0.048000000 0.118251 -0.007534 0.821168 -0.135104 0.821069 -0.1351 0.118426 -0.00856
0.049000000 0.118274 -0.007628 0.820643 -0.137789 0.820482 -0.137765 0.118395 -0.008694
0.050000000 0.118275 -0.007758 0.820059 -0.140488 0.819917 -0.140461 0.11838 -0.00887
0.051000000 0.118242 -0.007837 0.819485 -0.143157 0.819347 -0.143145 0.118385 -0.009
0.052000000 0.118194 -0.007925 0.818893 -0.145847 0.818785 -0.145842 0.11841 -0.00914
0.053000000 0.118182 -0.008022 0.818384 -0.148559 0.818206 -0.148494 0.118437 -0.009278
0.054000000 0.118245 -0.008144 0.817724 -0.151197 0.817603 -0.151151 0.118324 -0.009432
0.055000000 0.118156 -0.008269 0.817111 -0.153879 0.817026 -0.153845 0.118388 -0.009529
0.056000000 0.118224 -0.008413 0.816498 -0.156555 0.816388 -0.156518 0.118363 -0.009689
0.057000000 0.118209 -0.008456 0.815924 -0.159221 0.815786 -0.159169 0.118405 -0.009805
0.058000000 0.118171 -0.008589 0.815281 -0.161894 0.815146 -0.161856 0.118392 -0.009941
0.059000000 0.118237 -0.008725 0.814638 -0.164586 0.814548 -0.164513 0.118376 -0.010036
0.060000000 0.118218 -0.008752 0.814021 -0.167185 0.813866 -0.16712 0.118408 -0.01028
0.061000000 0.118165 -0.008958 0.813353 -0.169867 0.813209 -0.169803 0.118444 -0.010334
0.062000000 0.118179 -0.009075 0.812715 -0.172499 0.812577 -0.17242 0.118444 -0.010471
0.063000000 0.118185 -0.009123 0.812033 -0.175127 0.811915 -0.175047 0.118482 -0.010652
0.064000000 0.11814 -0.009294 0.811363 -0.177772 0.811219 -0.177673 0.118445 -0.010784
0.065000000 0.118164 -0.0094 0.810692 -0.180432 0.810544 -0.180348 0.118441 -0.010918
0.066000000 0.11817 -0.009548 0.809994 -0.18307 0.809842 -0.182956 0.118472 -0.011046
0.067000000 0.118179 -0.009618 0.809325 -0.185683 0.809147 -0.18563 0.118471 -0.011192
0.068000000 0.118148 -0.009698 0.808624 -0.18826 0.808434 -0.188255 0.118513 -0.011342
0.069000000 0.118154 -0.009896 0.807763 -0.190926 0.807621 -0.190911 0.118524 -0.011454
0.070000000 0.118203 -0.01 0.807109 -0.193557 0.806976 -0.193481 0.118519 -0.011567
0.071000000 0.118168 -0.010168 0.806354 -0.196301 0.806304 -0.196029 0.118561 -0.01168
0.072000000 0.118177 -0.010242 0.80562 -0.199001 0.805573 -0.198521 0.118557 -0.011855
0.073000000 0.118181 -0.010309 0.804862 -0.201545 0.804802 -0.201151 0.118561 -0.012013
0.074000000 0.118166 -0.010391 0.804136 -0.203944 0.804006 -0.204008 0.118638 -0.012139
0.075000000 0.118204 -0.010565 0.80333 -0.206693 0.803293 -0.206436 0.118623 -0.012281
0.076000000 0.118144 -0.010708 0.802601 -0.209148 0.802406 -0.209219 0.118631 -0.012417
0.077000000 0.118218 -0.010808 0.801776 -0.211781 0.801667 -0.21178 0.118629 -0.012526
0.078000000 0.118161 -0.010893 0.801016 -0.214475 0.800899 -0.214339 0.118649 -0.012671
0.079000000 0.118126 -0.011023 0.800232 -0.217117 0.800147 -0.216852 0.118707 -0.012839
0.080000000 0.118162 -0.011188 0.799409 -0.219755 0.799356 -0.219376 0.118671 -0.012987
0.081000000 0.118168 -0.011344 0.798611 -0.222235 0.79855 -0.222005 0.118674 -0.013078
0.082000000 0.118172 -0.011491 0.79782 -0.224749 0.797749 -0.224618 0.118616 -0.013261
0.083000000 0.118187 -0.011598 0.796996 -0.227256 0.796875 -0.227249 0.118666 -0.013389
0.084000000 0.118211 -0.011666 0.796149 -0.229826 0.79601 -0.229935 0.11871 -0.013503
0.085000000 0.118154 -0.011745 0.795324 -0.232352 0.79515 -0.232537 0.118758 -0.01371
0.086000000 0.11815 -0.011904 0.79444 -0.234974 0.794306 -0.235045 0.118759 -0.013821
0.087000000 0.118153 -0.012016 0.793556 -0.237638 0.793467 -0.237494 0.118839 -0.013915
0.088000000 0.118193 -0.012175 0.792677 -0.240268 0.792649 -0.240032 0.118786 -0.014055
0.089000000 0.118157 -0.012313 0.791843 -0.242769 0.791774 -0.242638 0.118805 -0.014229
0.090000000 0.118214 -0.012468 0.790992 -0.245288 0.790851 -0.245192 0.118784 -0.014356
0.091000000 0.11821 -0.012531 0.790127 -0.247787 0.790001 -0.247803 0.118746 -0.014477
0.092000000 0.118124 -0.012594 0.789232 -0.250326 0.789065 -0.250345 0.118851 -0.014649
0.093000000 0.118164 -0.01275 0.788321 -0.252921 0.788178 -0.252832 0.118868 -0.014741
0.094000000 0.11815 -0.012865 0.787421 -0.255588 0.787336 -0.255347 0.118888 -0.014905
0.095000000 0.118194 -0.013058 0.786444 -0.258098 0.786402 -0.257801 0.11888 -0.014965
0.096000000 0.118202 -0.013145 0.785513 -0.260617 0.785383 -0.260397 0.118932 -0.015208
0.097000000 0.118153 -0.013311 0.784663 -0.263019 0.784515 -0.262978 0.118898 -0.015357
0.098000000 0.118173 -0.013408 0.783653 -0.265676 0.783626 -0.265433 0.118934 -0.015454
0.099000000 0.118187 -0.013527 0.782744 -0.268063 0.782639 -0.268096 0.11895 -0.01564
0.100000000 0.118199 -0.013673 0.781731 -0.27069 0.781668 -0.27048 0.118995 -0.015699
0.110000000 0.118202 -0.014953 0.771775 -0.295301 0.771577 -0.295573 0.119091 -0.017157
0.120000000 0.118174 -0.016301 0.761048 -0.320034 0.76091 -0.319966 0.119211 -0.018521
0.130000000 0.118174 -0.017571 0.749554 -0.344123 0.749489 -0.343935 0.119316 -0.019917
0.140000000 0.118207 -0.018881 0.737346 -0.367652 0.737193 -0.367707 0.119504 -0.021258
0.150000000 0.118259 -0.020226 0.724497 -0.39065 0.724221 -0.391053 0.119599 -0.022558
0.160000000 0.118253 -0.021593 0.710827 -0.413471 0.710627 -0.413562 0.119773 -0.023995
0.170000000 0.118441 -0.023085 0.696303 -0.435954 0.696403 -0.435426 0.119834 -0.025147
0.180000000 0.118502 -0.024521 0.681425 -0.45736 0.681314 -0.457391 0.120036 -0.026675
0.190000000 0.118695 -0.026093 0.665736 -0.478514 0.665678 -0.478526 0.120211 -0.02798
0.200000000 0.118913 -0.027873 0.649559 -0.499146 0.64941 -0.499168 0.120355 -0.029525
0.210000000 0.11904 -0.029648 0.632777 -0.519264 0.632556 -0.519283 0.120487 -0.03107
0.220000000 0.119173 -0.031569 0.615388 -0.538771 0.615211 -0.538847 0.120617 -0.032722
0.230000000 0.119343 -0.033591 0.597357 -0.557923 0.597333 -0.557753 0.120512 -0.034565
0.240000000 0.119311 -0.035808 0.578902 -0.57637 0.578733 -0.576289 0.120293 -0.036537
0.250000000 0.119264 -0.037936 0.559804 -0.594177 0.559898 -0.593956 0.120062 -0.038598
0.260000000 0.1189 -0.040455 0.540316 -0.611342 0.540127 -0.611328 0.119642 -0.040848
0.270000000 0.118587 -0.042774 0.520242 -0.627807 0.520143 -0.627731 0.119163 -0.042968
0.280000000 0.118009 -0.045209 0.499733 -0.643679 0.499591 -0.643637 0.118518 -0.045234
0.290000000 0.117257 -0.047595 0.478702 -0.658873 0.478511 -0.658781 0.11763 -0.047611
0.300000000 0.116378 -0.049852 0.456994 -0.673471 0.456981 -0.673231 0.116826 -0.050155
0.310000000 0.115406 -0.052231 0.435097 -0.687187 0.435085 -0.686966 0.115683 -0.052366
0.320000000 0.114388 -0.054459 0.412806 -0.700151 0.41283 -0.699975 0.114297 -0.054282
0.330000000 0.113193 -0.056604 0.390034 -0.712495 0.390075 -0.712326 0.112874 -0.056511
0.340000000 0.111924 -0.058712 0.366951 -0.724085 0.366987 -0.723943 0.111485 -0.058783
0.350000000 0.110673 -0.060824 0.34349 -0.735002 0.343433 -0.734877 0.110137 -0.061064
0.360000000 0.109374 -0.062868 0.319656 -0.745176 0.319674 -0.74505 0.108784 -0.063312
0.370000000 0.108148 -0.064891 0.295576 -0.754613 0.295489 -0.754502 0.107519 -0.065487
0.380000000 0.106744 -0.066893 0.271312 -0.763224 0.271238 -0.763126 0.105822 -0.067763
0.390000000 0.105374 -0.06896 0.246965 -0.771029 0.246873 -0.770916 0.104125 -0.070304
0.400000000 0.104033 -0.071038 0.222209 -0.778095 0.222073 -0.778018 0.102508 -0.072578
0.410000000 0.102471 -0.073101 0.197337 -0.78437 0.197211 -0.7843 0.100803 -0.07492
0.420000000 0.100882 -0.075224 0.172168 -0.789797 0.172019 -0.78968 0.09899 -0.077229
0.430000000 0.099213 -0.077482 0.146899 -0.794468 0.146861 -0.794295 0.096989 -0.079373
0.440000000 0.097407 -0.079787 0.121667 -0.798329 0.12169 -0.798155 0.095042 -0.082029
0.450000000 0.095305 -0.081958 0.096348 -0.80134 0.096282 -0.801257 0.092971 -0.084562
0.460000000 0.09313 -0.084072 0.070776 -0.803592 0.070557 -0.803481 0.090575 -0.086709
0.470000000 0.090855 -0.086212 0.045116 -0.805107 0.045014 -0.804958 0.088011 -0.08884
0.480000000 0.088449 -0.088217 0.019521 -0.805758 0.019386 -0.805625 0.085593 -0.090894
0.490000000 0.085853 -0.090115 -0.006104 -0.805608 -0.006247 -0.805531 0.082934 -0.092771
0.500000000 0.083211 -0.091853 -0.031679 -0.804771 -0.031807 -0.804686 0.080382 -0.094583
0.510000000 0.080475 -0.093497 -0.057208 -0.803041 -0.057405 -0.8029 0.077573 -0.096153
0.520000000 0.077723 -0.094966 -0.082712 -0.80049 -0.082849 -0.800318 0.074841 -0.097623
0.530000000 0.074905 -0.096227 -0.108075 -0.797182 -0.108204 -0.796981 0.072055 -0.098858
0.540000000 0.072137 -0.097505 -0.133243 -0.792992 -0.133369 -0.792817 0.069284 -0.100148
0.550000000 0.069265 -0.098538 -0.158348 -0.787963 -0.158461 -0.787796 0.066482 -0.101266
0.560000000 0.066443 -0.09954 -0.183177 -0.782163 -0.183274 -0.782027 0.063703 -0.102275
0.570000000 0.063585 -0.100372 -0.207779 -0.775628 -0.207904 -0.775388 0.060886 -0.103096
0.580000000 0.060763 -0.101139 -0.232148 -0.768181 -0.232247 -0.767984 0.058171 -0.103988
0.590000000 0.057799 -0.101884 -0.256301 -0.760039 -0.25639 -0.759836 0.055285 -0.104738
0.600000000 0.054837 -0.102462 -0.280153 -0.751087 -0.280241 -0.750918 0.05226 -0.105337
0.610000000 0.051756 -0.10292 -0.303699 -0.741427 -0.303825 -0.741272 0.049256 -0.105833
0.620000000 0.04867 -0.103244 -0.326968 -0.731042 -0.327095 -0.730942 0.046107 -0.106231
0.630000000 0.045424 -0.103438 -0.34986 -0.719997 -0.350005 -0.719833 0.042862 -0.106474
0.640000000 0.042128 -0.10346 -0.372391 -0.708226 -0.372528 -0.708083 0.039507 -0.106518
0.650000000 0.038749 -0.103394 -0.394552 -0.695763 -0.394737 -0.695599 0.036024 -0.106439
0.660000000 0.035318 -0.102982 -0.416371 -0.682678 -0.416504 -0.682449 0.03247 -0.106054
0.670000000 0.031944 -0.102458 -0.437661 -0.668798 -0.43778 -0.668591 0.028952 -0.105496
0.680000000 0.028616 -0.101683 -0.458508 -0.654307 -0.4586 -0.654078 0.02545 -0.104661
0.690000000 0.025305 -0.100707 -0.478844 -0.63915 -0.478968 -0.638945 0.021924 -0.103673
0.700000000 0.022042 -0.099566 -0.498699 -0.623281 -0.498775 -0.623062 0.018451 -0.102473
0.710000000 0.018887 -0.098259 -0.517972 -0.606827 -0.518071 -0.60658 0.015108 -0.101109
0.720000000 0.015801 -0.096847 -0.536764 -0.589731 -0.536845 -0.589481 0.011778 -0.099572
0.730000000 0.012844 -0.095319 -0.555002 -0.572026 -0.555067 -0.571789 0.008522 -0.097932
0.740000000 0.010073 -0.093801 -0.572657 -0.553778 -0.572735 -0.553545 0.005375 -0.096176
0.750000000 0.007325 -0.092129 -0.58972 -0.534975 -0.589784 -0.534692 0.002312 -0.094381
0.760000000 0.004657 -0.090538 -0.606193 -0.515693 -0.606254 -0.515409 -0.000575 -0.092542
0.770000000 0.002177 -0.088851 -0.622009 -0.49592 -0.622083 -0.495616 -0.003426 -0.09057
0.780000000 -0.000311 -0.087192 -0.637239 -0.475695 -0.63729 -0.475399 -0.006298 -0.088637
0.790000000 -0.002714 -0.085506 -0.651722 -0.45493 -0.651753 -0.454634 -0.008956 -0.086603
0.800000000 -0.005147 -0.083726 -0.665554 -0.433828 -0.665654 -0.433537 -0.011529 -0.084598
0.810000000 -0.007466 -0.082005 -0.678729 -0.412284 -0.678772 -0.411984 -0.014089 -0.082505
0.820000000 -0.009745 -0.08019 -0.691236 -0.390368 -0.691199 -0.390075 -0.016566 -0.080328
0.830000000 -0.012025 -0.078293 -0.702925 -0.36806 -0.702926 -0.367761 -0.018903 -0.07804
0.840000000 -0.014261 -0.076209 -0.713914 -0.345358 -0.713899 -0.345081 -0.021133 -0.075647
0.850000000 -0.016473 -0.074097 -0.724116 -0.322415 -0.724104 -0.322125 -0.02319 -0.073268
0.860000000 -0.01849 -0.071751 -0.733586 -0.299147 -0.733599 -0.298843 -0.025217 -0.070677
0.870000000 -0.020582 -0.069332 -0.7424 -0.275486 -0.742396 -0.275184 -0.026864 -0.068007
0.880000000 -0.02244 -0.06681 -0.750431 -0.251609 -0.750409 -0.251326 -0.028508 -0.065295
0.890000000 -0.024205 -0.064137 -0.757617 -0.22751 -0.757593 -0.227184 -0.029814 -0.062511
0.900000000 -0.025789 -0.061359 -0.764124 -0.203175 -0.764095 -0.202859 -0.030988 -0.059652
0.910000000 -0.027208 -0.058426 -0.769872 -0.178669 -0.769828 -0.178372 -0.031955 -0.056724
0.920000000 -0.02845 -0.05545 -0.774799 -0.153999 -0.774743 -0.153719 -0.032761 -0.053782
0.930000000 -0.029579 -0.052407 -0.778943 -0.129195 -0.778891 -0.128936 -0.033212 -0.050808
0.940000000 -0.030499 -0.049303 -0.782323 -0.104342 -0.782191 -0.10404 -0.033549 -0.047881
0.950000000 -0.031195 -0.046157 -0.784868 -0.079384 -0.784736 -0.079094 -0.033738 -0.044885
0.960000000 -0.031824 -0.043004 -0.786569 -0.05437 -0.786426 -0.054157 -0.033662 -0.04197
0.970000000 -0.032231 -0.039883 -0.787466 -0.029418 -0.787377 -0.029092 -0.033538 -0.038996
0.980000000 -0.032498 -0.036643 -0.78754 -0.004344 -0.78738 -0.004123 -0.033235 -0.036045
0.990000000 -0.032588 -0.033437 -0.786766 0.020688 -0.786602 0.020923 -0.032768 -0.033055
1.000000000 -0.032591 -0.030334 -0.785181 0.045607 -0.785045 0.045883 -0.032227 -0.030133
1.010000000 -0.03242 -0.02711 -0.782819 0.070554 -0.782687 0.070767 -0.031659 -0.027221
1.020000000 -0.032155 -0.023924 -0.779624 0.095341 -0.779517 0.095585 -0.030829 -0.024186
1.030000000 -0.03173 -0.020782 -0.775731 0.120022 -0.77557 0.120294 -0.029973 -0.021079
1.040000000 -0.031127 -0.017607 -0.771036 0.14451 -0.770873 0.144747 -0.028937 -0.018075
1.050000000 -0.030322 -0.014482 -0.765601 0.168864 -0.765427 0.16913 -0.027856 -0.015077
1.060000000 -0.029372 -0.011389 -0.759442 0.193048 -0.759257 0.193301 -0.026524 -0.012111
1.070000000 -0.028246 -0.008269 -0.752478 0.216958 -0.752273 0.21718 -0.025022 -0.009139
1.080000000 -0.026927 -0.005342 -0.744745 0.240604 -0.744573 0.24089 -0.023405 -0.00627
1.090000000 -0.025415 -0.002484 -0.736281 0.263979 -0.736078 0.264244 -0.02163 -0.003463
1.100000000 -0.023788 0.000214 -0.727065 0.287044 -0.726853 0.287254 -0.019757 -0.000817
1.110000000 -0.022018 0.002829 -0.71707 0.309739 -0.716875 0.309951 -0.017682 0.001744
1.120000000 -0.020096 0.005282 -0.706407 0.33208 -0.706152 0.332301 -0.015567 0.004035
1.130000000 -0.018147 0.007506 -0.694963 0.354022 -0.694739 0.354259 -0.013282 0.006203
1.140000000 -0.016118 0.009573 -0.682812 0.375598 -0.682553 0.375822 -0.010962 0.008151
1.150000000 -0.013991 0.011501 -0.669977 0.396751 -0.669751 0.396969 -0.008688 0.009874
1.160000000 -0.011869 0.013259 -0.656499 0.41754 -0.65623 0.417725 -0.006347 0.011358
1.170000000 -0.009848 0.015012 -0.642409 0.43789 -0.642103 0.43807 -0.003936 0.012594
1.180000000 -0.007736 0.016655 -0.627408 0.457686 -0.627151 0.457848 -0.001495 0.013371
1.190000000 -0.00487 0.018262 -0.611662 0.476164 -0.611416 0.476349 -0.000126 0.013522
1.200000000 -0.002692 0.018604 -0.597036 0.494562 -0.596724 0.494716 0.001277 0.015765
1.210000000 -0.00097 0.019651 -0.581011 0.513231 -0.580695 0.513419 0.003982 0.017077
1.220000000 0.000949 0.020743 -0.564171 0.531213 -0.563838 0.531355 0.00654 0.017953
1.230000000 0.003068 0.021851 -0.546726 0.54847 -0.546412 0.548638 0.008999 0.018591
1.240000000 0.005242 0.022836 -0.528762 0.5651 -0.528432 0.565261 0.011519 0.019111
1.250000000 0.007465 0.023729 -0.510255 0.581119 -0.509906 0.581256 0.014151 0.019417
1.260000000 0.009931 0.024508 -0.491305 0.596514 -0.490954 0.596627 0.016738 0.019624
1.270000000 0.012438 0.02517 -0.471835 0.611233 -0.471511 0.611378 0.019437 0.019714
1.280000000 0.01506 0.025655 -0.451973 0.625334 -0.451619 0.625478 0.022157 0.019529
1.290000000 0.017896 0.026025 -0.43163 0.638775 -0.431296 0.638865 0.024967 0.019224
1.300000000 0.020742 0.026185 -0.410962 0.6516 -0.410594 0.651717 0.027822 0.018605
1.310000000 0.0237 0.026112 -0.389962 0.663726 -0.3896 0.66386 0.030699 0.017934
1.320000000 0.026599 0.025785 -0.368589 0.675295 -0.368193 0.675348 0.033495 0.017017
1.330000000 0.029659 0.025334 -0.346891 0.686142 -0.346532 0.686223 0.036242 0.015874
1.340000000 0.032687 0.024619 -0.324853 0.696281 -0.324449 0.696346 0.038894 0.014549
1.350000000 0.035568 0.023751 -0.302567 0.705697 -0.302161 0.70575 0.041516 0.013068
1.360000000 0.038438 0.022661 -0.279983 0.71439 -0.279568 0.714414 0.043966 0.01159
1.370000000 0.041223 0.02148 -0.257231 0.722293 -0.256839 0.722346 0.046296 0.009963
1.380000000 0.044005 0.020068 -0.234217 0.729466 -0.233821 0.729479 0.048542 0.00834
1.390000000 0.04657 0.018657 -0.211027 0.73589 -0.210646 0.735892 0.050722 0.006598
1.400000000 0.049088 0.017114 -0.187678 0.741582 -0.187262 0.741623 0.052841 0.004899
1.410000000 0.051461 0.015489 -0.164176 0.746509 -0.163739 0.746462 0.054749 0.003058
1.420000000 0.053837 0.013855 -0.140511 0.750688 -0.140072 0.750685 0.056774 0.001287
1.430000000 0.0561 0.012031 -0.11672 0.754135 -0.11636 0.754168 0.058629 -0.000565
1.440000000 0.058261 0.010168 -0.092883 0.756889 -0.092514 0.756863 0.060466 -0.002377
1.450000000 0.060289 0.008203 -0.069034 0.758874 -0.06859 0.758836 0.062219 -0.004414
1.460000000 0.062276 0.006164 -0.045088 0.760202 -0.044661 0.760133 0.06387 -0.006442
1.470000000 0.064112 0.00398 -0.021175 0.760727 -0.020738 0.760676 0.065446 -0.008577
1.480000000 0.065844 0.001612 0.002722 0.76049 0.003157 0.760426 0.066947 -0.010896
1.490000000 0.067307 -0.000879 0.026579 0.759524 0.02697 0.759431 0.068191 -0.013299
1.500000000 0.068582 -0.003365 0.050268 0.757735 0.050708 0.757655 0.069328 -0.015847
1.510000000 0.069637 -0.0061 0.073898 0.755235 0.074322 0.755133 0.070177 -0.018456
1.520000000 0.070465 -0.008763 0.097391 0.752096 0.097826 0.751892 0.070792 -0.021049
1.530000000 0.071084 -0.01164 0.120729 0.748106 0.121155 0.747963 0.07117 -0.023833
1.540000000 0.071385 -0.014419 0.14395 0.743428 0.144371 0.743288 0.071296 -0.026585
1.550000000 0.071483 -0.017264 0.166976 0.738082 0.167382 0.737891 0.071166 -0.02932
1.560000000 0.071349 -0.019968 0.189951 0.732015 0.190291 0.731827 0.070829 -0.032023
1.570000000 0.071021 -0.022608 0.212627 0.725253 0.212998 0.725062 0.070267 -0.034601
1.580000000 0.070581 -0.025261 0.235074 0.717827 0.235432 0.717593 0.069545 -0.037083
1.590000000 0.070057 -0.027805 0.257334 0.709677 0.257683 0.709476 0.068712 -0.03964
1.600000000 0.069344 -0.030223 0.279278 0.700903 0.279668 0.700721 0.067618 -0.042106
1.610000000 0.068636 -0.032562 0.300914 0.691508 0.301307 0.69125 0.066521 -0.044423
1.620000000 0.067871 -0.034792 0.322286 0.681389 0.322679 0.681156 0.065346 -0.046636
1.630000000 0.06708 -0.036989 0.343274 0.670611 0.34358 0.670341 0.064004 -0.048783
1.640000000 0.066303 -0.039176 0.363852 0.659227 0.364171 0.658891 0.062604 -0.051006
1.650000000 0.06538 -0.041332 0.384035 0.647138 0.384358 0.64683 0.061236 -0.053258
1.660000000 0.064599 -0.043499 0.403841 0.634468 0.404148 0.63412 0.059644 -0.055452
1.670000000 0.063649 -0.045648 0.423141 0.621125 0.423458 0.620815 0.05811 -0.057569
1.680000000 0.062686 -0.047733 0.442119 0.60725 0.442393 0.606903 0.056328 -0.059704
1.690000000 0.061551 -0.049918 0.460581 0.592745 0.460892 0.592406 0.054472 -0.061868
1.700000000 0.060389 -0.052057 0.478553 0.57773 0.478864 0.57736 0.052466 -0.063964
1.710000000 0.059042 -0.054136 0.4961 0.562129 0.496387 0.561755 0.050295 -0.065912
1.720000000 0.057531 -0.056169 0.513172 0.546074 0.513482 0.54573 0.048032 -0.067876
1.730000000 0.055832 -0.058209 0.529709 0.529507 0.530018 0.529123 0.045613 -0.069706
1.740000000 0.054038 -0.060159 0.545696 0.512454 0.546026 0.512033 0.043104 -0.071364
1.750000000 0.051992 -0.061983 0.561197 0.494966 0.561459 0.494461 0.040465 -0.072935
1.760000000 0.049921 -0.063666 0.576134 0.477036 0.576353 0.476542 0.037771 -0.07428
1.770000000 0.047712 -0.065195 0.590462 0.458621 0.590633 0.458108 0.035135 -0.07541
1.780000000 0.04523 -0.066605 0.604222 0.439806 0.604365 0.439287 0.032248 -0.076408
1.790000000 0.042883 -0.067881 0.617301 0.420538 0.617453 0.420045 0.029489 -0.077189
1.800000000 0.040315 -0.069052 0.629839 0.400861 0.629941 0.400392 0.02678 -0.077916
1.810000000 0.037747 -0.069948 0.641676 0.380841 0.641824 0.380369 0.024044 -0.078348
1.820000000 0.035126 -0.070849 0.652978 0.360465 0.653089 0.359985 0.02133 -0.078781
1.830000000 0.032565 -0.071566 0.663599 0.339684 0.663657 0.339338 0.018645 -0.079057
1.840000000 0.029868 -0.072172 0.673547 0.318629 0.673706 0.318264 0.016041 -0.079216
1.850000000 0.027197 -0.072624 0.682914 0.29731 0.683045 0.296891 0.013428 -0.079275
1.860000000 0.02458 -0.073029 0.691677 0.275651 0.691758 0.275205 0.010846 -0.079236
1.870000000 0.021956 -0.073331 0.699701 0.253756 0.699756 0.253321 0.008231 -0.079115
1.880000000 0.019279 -0.073507 0.707065 0.231648 0.707112 0.231182 0.005588 -0.078858
1.890000000 0.016647 -0.073558 0.713749 0.209371 0.713803 0.208868 0.002959 -0.078557
1.900000000 0.014042 -0.073488 0.719732 0.186879 0.719717 0.186375 0.0003 -0.078056
1.910000000 0.011414 -0.073299 0.724959 0.16421 0.724894 0.163756 -0.00239 -0.077396
1.920000000 0.008828 -0.072895 0.729482 0.141442 0.729414 0.140932 -0.005149 -0.07657
1.930000000 0.006261 -0.072403 0.733269 0.11849 0.733212 0.118028 -0.007873 -0.075568
1.940000000 0.003711 -0.071626 0.736375 0.095435 0.736292 0.095006 -0.010602 -0.074368
1.950000000 0.001283 -0.070643 0.738663 0.072336 0.738609 0.07191 -0.013244 -0.072967
1.960000000 -0.001075 -0.069534 0.740277 0.049132 0.740205 0.048666 -0.015889 -0.071395
1.970000000 -0.003332 -0.068265 0.741158 0.025915 0.741098 0.025474 -0.018449 -0.069529
1.980000000 -0.005441 -0.066726 0.741359 0.002606 0.741239 0.002124 -0.020892 -0.067561
1.990000000 -0.007459 -0.065057 0.740867 -0.020635 0.740712 -0.021137 -0.023218 -0.065339
2.000000000 -0.009286 -0.063292 0.73966 -0.043868 0.73949 -0.044393 -0.025398 -0.063006
2.010000000 -0.010978 -0.061373 0.737719 -0.067097 0.737546 -0.067551 -0.027548 -0.060617
2.020000000 -0.012553 -0.059459 0.73508 -0.090136 0.73482 -0.090657 -0.029471 -0.058124
2.030000000 -0.01403 -0.057392 0.731702 -0.113251 0.731421 -0.113628 -0.031228 -0.055594
2.040000000 -0.015289 -0.055436 0.727501 -0.136079 0.727267 -0.136493 -0.032938 -0.052974
2.050000000 -0.016563 -0.053356 0.722715 -0.158736 0.722444 -0.159095 -0.034558 -0.050337
2.060000000 -0.017738 -0.051355 0.717161 -0.181265 0.71688 -0.181638 -0.036051 -0.047711
2.070000000 -0.018923 -0.04936 0.710833 -0.203532 0.710578 -0.203909 -0.037474 -0.045039
2.080000000 -0.020122 -0.047313 0.703823 -0.225634 0.703562 -0.225954 -0.038796 -0.042392
2.090000000 -0.021198 -0.045238 0.696102 -0.247447 0.695858 -0.247854 -0.040117 -0.039726
2.100000000 -0.022419 -0.04315 0.687783 -0.269078 0.687497 -0.269453 -0.0414 -0.036951
2.110000000 -0.023564 -0.041073 0.678742 -0.290418 0.678417 -0.290807 -0.042631 -0.034145
2.120000000 -0.024759 -0.038868 0.669133 -0.311307 0.668709 -0.311832 -0.043741 -0.031357
2.130000000 -0.025958 -0.036526 0.658774 -0.332082 0.658333 -0.332575 -0.044704 -0.028481
2.140000000 -0.027073 -0.03417 0.647846 -0.352499 0.647375 -0.353007 -0.045621 -0.02557
2.150000000 -0.028125 -0.03175 0.636338 -0.372599 0.635825 -0.373014 -0.046374 -0.022671
2.160000000 -0.028975 -0.029208 0.624134 -0.392241 0.623618 -0.3927 -0.046961 -0.01962
2.170000000 -0.029777 -0.026635 0.611343 -0.411579 0.610865 -0.412008 -0.0473 -0.016697
2.180000000 -0.03036 -0.023978 0.597951 -0.430438 0.597444 -0.430825 -0.047452 -0.013735
2.190000000 -0.030821 -0.021292 0.583978 -0.448815 0.583487 -0.449219 -0.047479 -0.010885
2.200000000 -0.031089 -0.018622 0.569415 -0.466758 0.568948 -0.46712 -0.047156 -0.008031
2.210000000 -0.031132 -0.01599 0.554304 -0.484237 0.553806 -0.484575 -0.046755 -0.005351
2.220000000 -0.031073 -0.013433 0.538617 -0.501219 0.538094 -0.501548 -0.046179 -0.002798
2.230000000 -0.030884 -0.010909 0.522365 -0.517667 0.52183 -0.518024 -0.045443 -0.00034
2.240000000 -0.030515 -0.008477 0.50561 -0.533654 0.505066 -0.533955 -0.044581 0.001884
2.250000000 -0.030099 -0.005992 0.488389 -0.549071 0.487811 -0.549386 -0.043641 0.004049
2.260000000 -0.029562 -0.003664 0.470678 -0.563982 0.470059 -0.564241 -0.042565 0.006186
2.270000000 -0.028979 -0.001363 0.452513 -0.578311 0.451909 -0.578557 -0.041458 0.008198
2.280000000 -0.028336 0.00095 0.433939 -0.59204 0.433359 -0.592282 -0.040278 0.010204
2.290000000 -0.027615 0.003254 0.41499 -0.605195 0.41433 -0.605433 -0.039065 0.01218
2.300000000 -0.026856 0.005521 0.395557 -0.617736 0.394961 -0.617987 -0.037705 0.014187
2.310000000 -0.025947 0.007871 0.375825 -0.629672 0.375234 -0.629889 -0.036292 0.016206
2.320000000 -0.02493 0.01016 0.355725 -0.640948 0.355099 -0.641177 -0.03475 0.01823
2.330000000 -0.023825 0.012604 0.335254 -0.651553 0.33462 -0.651766 -0.033028 0.020266
2.340000000 -0.022541 0.014948 0.314487 -0.661542 0.313809 -0.661714 -0.031213 0.022307
2.350000000 -0.021069 0.01723 0.293395 -0.670798 0.292684 -0.671002 -0.029197 0.024393
2.360000000 -0.019416 0.019544 0.27202 -0.679424 0.271296 -0.679604 -0.027001 0.026414
2.370000000 -0.017665 0.02176 0.250339 -0.687368 0.249599 -0.687508 -0.02459 0.028349
2.380000000 -0.015638 0.023861 0.228434 -0.694563 0.227673 -0.694716 -0.022119 0.030213
2.390000000 -0.013569 0.025824 0.206269 -0.701147 0.205479 -0.701264 -0.019502 0.031925
2.400000000 -0.01134 0.027547 0.18397 -0.707013 0.183161 -0.707099 -0.016839 0.033528
2.410000000 -0.009062 0.029109 0.161426 -0.71218 0.160637 -0.712248 -0.014052 0.034968
2.420000000 -0.006772 0.030483 0.138809 -0.71663 0.137983 -0.716667 -0.011217 0.036274
2.430000000 -0.004518 0.031655 0.116104 -0.720368 0.115286 -0.720371 -0.00846 0.037378
2.440000000 -0.002278 0.032658 0.093275 -0.723377 0.092476 -0.723367 -0.005816 0.038403
2.450000000 -0.000116 0.033508 0.070424 -0.725664 0.069598 -0.725618 -0.003179 0.039274
2.460000000 0.001984 0.034236 0.047487 -0.727211 0.046695 -0.727132 -0.000719 0.040115
2.470000000 0.003928 0.03496 0.024541 -0.727977 0.02373 -0.727913 0.001625 0.040811
2.480000000 0.005831 0.035619 0.001585 -0.72806 0.000771 -0.727966 0.003815 0.041559
2.490000000 0.007753 0.036193 -0.021345 -0.72739 -0.022193 -0.727247 0.005888 0.042212
2.500000000 0.009508 0.036837 -0.044219 -0.725943 -0.04508 -0.725804 0.007883 0.042806
2.510000000 0.011215 0.037511 -0.067119 -0.723825 -0.067959 -0.723611 0.009882 0.043396
2.520000000 0.013094 0.038246 -0.089851 -0.72093 -0.09072 -0.720744 0.011837 0.044076
2.530000000 0.014977 0.03897 -0.112521 -0.717406 -0.113372 -0.717151 0.01375 0.044596
2.540000000 0.016966 0.039702 -0.13506 -0.713175 -0.135954 -0.712925 0.015738 0.045124
2.550000000 0.018989 0.040439 -0.157489 -0.708257 -0.158343 -0.70793 0.017738 0.045502
2.560000000 0.021145 0.041058 -0.179661 -0.702638 -0.180551 -0.702307 0.019754 0.045789
2.570000000 0.023485 0.041635 -0.201719 -0.696284 -0.202569 -0.69595 0.021864 0.045896
2.580000000 0.025853 0.042073 -0.223578 -0.689311 -0.224389 -0.688883 0.024008 0.045837
2.590000000 0.028332 0.042386 -0.245075 -0.681546 -0.245923 -0.681117 0.026178 0.045704
2.600000000 0.030899 0.042524 -0.266324 -0.673095 -0.267173 -0.672581 0.028395 0.045298
2.610000000 0.033507 0.04243 -0.287296 -0.663894 -0.28812 -0.663327 0.030596 0.044707
2.620000000 0.036219 0.042264 -0.307904 -0.65397 -0.308699 -0.65342 0.032843 0.043968
2.630000000 0.038891 0.041882 -0.328072 -0.643415 -0.328912 -0.642826 0.035041 0.043021
2.640000000 0.041568 0.04129 -0.34796 -0.632186 -0.348744 -0.631562 0.03724 0.041854
2.650000000 0.044253 0.04053 -0.367479 -0.620332 -0.36825 -0.61971 0.039351 0.04054
2.660000000 0.046902 0.03966 -0.386511 -0.607828 -0.387276 -0.607177 0.041437 0.039218
2.670000000 0.049453 0.038859 -0.405177 -0.594743 -0.405908 -0.594066 0.043526 0.037899
2.680000000 0.052058 0.03786 -0.423354 -0.581014 -0.424051 -0.580323 0.045621 0.036499
2.690000000 0.054724 0.037021 -0.440982 -0.566681 -0.441704 -0.565929 0.047783 0.035258
2.700000000 0.057442 0.036192 -0.457979 -0.551798 -0.458676 -0.551033 0.050121 0.033998
2.710000000 0.060336 0.03519 -0.47429 -0.536376 -0.474952 -0.535604 0.052687 0.032739
2.720000000 0.063601 0.034107 -0.489793 -0.520563 -0.49043 -0.519766 0.055652 0.031362
2.730000000 0.066949 0.032592 -0.504519 -0.504589 -0.505139 -0.50377 0.058763 0.029606
2.740000000 0.070397 0.030653 -0.518648 -0.488568 -0.519222 -0.487754 0.062002 0.027395
2.750000000 0.073641 0.028102 -0.532435 -0.472584 -0.53302 -0.471818 0.065057 0.024735
2.760000000 0.076304 0.025068 -0.546141 -0.456441 -0.54669 -0.455629 0.067616 0.021693
2.770000000 0.078424 0.022022 -0.559723 -0.439868 -0.560301 -0.439054 0.069677 0.018666
2.780000000 0.080084 0.019083 -0.57313 -0.422738 -0.57368 -0.421886 0.071351 0.015713
2.790000000 0.081402 0.016218 -0.586151 -0.404878 -0.586683 -0.404029 0.072837 0.012963
2.800000000 0.082562 0.013648 -0.598704 -0.386501 -0.599231 -0.385603 0.074073 0.010497
2.810000000 0.083534 0.011217 -0.610654 -0.367593 -0.611136 -0.366653 0.075303 0.00813
2.820000000 0.084381 0.008921 -0.622064 -0.348226 -0.622445 -0.347228 0.076426 0.006027
2.830000000 0.085134 0.00662 -0.632766 -0.328421 -0.633148 -0.327445 0.077396 0.003882
2.840000000 0.085685 0.0045 -0.642814 -0.308218 -0.643097 -0.307244 0.07824 0.002022
2.850000000 0.086121 0.002417 -0.652173 -0.287711 -0.652404 -0.28679 0.078945 9.5e-05
2.860000000 0.086485 0.000437 -0.660803 -0.266968 -0.661019 -0.266038 0.079582 -0.001687
2.870000000 0.086791 -0.00138 -0.668679 -0.245907 -0.668906 -0.244968 0.080185 -0.003273
2.880000000 0.086929 -0.003144 -0.675861 -0.224623 -0.67604 -0.223671 0.080599 -0.004793
2.890000000 0.087158 -0.004787 -0.682305 -0.203094 -0.682496 -0.202182 0.081042 -0.006182
2.900000000 0.087296 -0.006321 -0.688051 -0.181482 -0.688209 -0.180576 0.081387 -0.007501
2.910000000 0.08752 -0.007898 -0.693059 -0.159674 -0.693252 -0.158789 0.081828 -0.008737
2.920000000 0.087767 -0.009463 -0.697431 -0.137771 -0.697574 -0.136783 0.082144 -0.010007
2.930000000 0.088117 -0.010981 -0.701101 -0.115752 -0.701225 -0.114752 0.082591 -0.011265
2.940000000 0.088535 -0.012701 -0.7041 -0.093644 -0.704224 -0.092625 0.08302 -0.012617
2.950000000 0.089057 -0.014382 -0.7065 -0.071429 -0.706556 -0.070388 0.083543 -0.013955
2.960000000 0.089655 -0.016336 -0.708231 -0.049147 -0.708231 -0.048093 0.083979 -0.015508
2.970000000 0.090182 -0.018322 -0.709235 -0.026845 -0.709171 -0.025824 0.084317 -0.01703
2.980000000 0.09073 -0.02058 -0.709511 -0.004512 -0.709383 -0.003459 0.084639 -0.018844
2.990000000 0.091245 -0.02289 -0.70906 0.017822 -0.708911 0.018859 0.084808 -0.020619
3.000000000 0.09166 -0.02533 -0.707866 0.040119 -0.707703 0.041094 0.084827 -0.022502
3.010000000 0.091859 -0.027893 -0.705911 0.062318 -0.705735 0.06327 0.08472 -0.024529
3.020000000 0.092044 -0.030456 -0.703244 0.084386 -0.703068 0.085376 0.08443 -0.026494
3.030000000 0.091965 -0.033029 -0.699832 0.106362 -0.699655 0.107345 0.083903 -0.02848
3.040000000 0.091889 -0.035523 -0.695717 0.128164 -0.695532 0.129167 0.083366 -0.030446
3.050000000 0.091578 -0.037872 -0.690957 0.149846 -0.690714 0.150861 0.082677 -0.032311
3.060000000 0.091198 -0.040231 -0.685488 0.171338 -0.685206 0.172396 0.081863 -0.034102
3.070000000 0.090816 -0.042392 -0.679363 0.192631 -0.679026 0.19371 0.081179 -0.035822
3.080000000 0.090353 -0.044423 -0.67265 0.213686 -0.672198 0.214786 0.080331 -0.037422
3.090000000 0.089853 -0.046313 -0.665295 0.23453 -0.664783 0.235631 0.079662 -0.038964
3.100000000 0.089439 -0.048109 -0.657275 0.255175 -0.656711 0.256206 0.079117 -0.040522
3.110000000 0.088959 -0.04981 -0.648646 0.275458 -0.648024 0.276453 0.078551 -0.042125
3.120000000 0.08856 -0.051531 -0.639381 0.295479 -0.638726 0.296398 0.078077 -0.043758
3.130000000 0.088157 -0.053248 -0.629542 0.315121 -0.628877 0.316004 0.07768 -0.045481
3.140000000 0.087696 -0.054999 -0.619061 0.334439 -0.618429 0.335332 0.077288 -0.047272
3.150000000 0.087124 -0.056666 -0.608035 0.353422 -0.607343 0.354292 0.076966 -0.049112
3.160000000 0.086683 -0.058502 -0.596371 0.372022 -0.595735 0.372899 0.076576 -0.051047
3.170000000 0.086001 -0.060331 -0.584136 0.390198 -0.583458 0.39109 0.076245 -0.053159
3.180000000 0.085328 -0.062245 -0.571353 0.408063 -0.570665 0.408975 0.075825 -0.055292
3.190000000 0.084484 -0.064221 -0.558003 0.425468 -0.55725 0.426397 0.07538 -0.057452
3.200000000 0.083544 -0.066149 -0.544133 0.442491 -0.543291 0.44342 0.074793 -0.059639
3.210000000 0.082507 -0.068095 -0.529802 0.4591 -0.528852 0.460013 0.074134 -0.061697
3.220000000 0.08139 -0.070025 -0.514879 0.475253 -0.513856 0.476144 0.073419 -0.063676
3.230000000 0.080214 -0.071882 -0.499466 0.490942 -0.498412 0.491792 0.072731 -0.065621
3.240000000 0.07898 -0.073656 -0.483624 0.506147 -0.482504 0.506943 0.071942 -0.067384
3.250000000 0.077847 -0.075472 -0.467279 0.520848 -0.466182 0.521568 0.071244 -0.068946
3.260000000 0.076666 -0.077078 -0.450479 0.534935 -0.449328 0.535588 0.070564 -0.070427
3.270000000 0.075518 -0.078762 -0.433263 0.548494 -0.432119 0.549122 0.069934 -0.071749
3.280000000 0.074565 -0.080363 -0.415656 0.56146 -0.414515 0.562042 0.069299 -0.072918
3.290000000 0.073603 -0.081918 -0.397669 0.573808 -0.396531 0.574386 0.068833 -0.074012
3.300000000 0.07274 -0.08358 -0.379289 0.5856 -0.378137 0.586147 0.068426 -0.075041
3.310000000 0.072047 -0.085271 -0.360583 0.596784 -0.359385 0.59734 0.067911 -0.076028
3.320000000 0.07128 -0.087028 -0.341536 0.607399 -0.340301 0.607922 0.06761 -0.077022
3.330000000 0.07056 -0.088862 -0.322212 0.617437 -0.320946 0.617902 0.067213 -0.078
3.340000000 0.069831 -0.09084 -0.302594 0.626888 -0.301259 0.627332 0.066817 -0.079067
3.350000000 0.069063 -0.092915 -0.282657 0.635783 -0.281364 0.63617 0.066286 -0.080046
3.360000000 0.068085 -0.095025 -0.262585 0.644056 -0.261201 0.644372 0.065625 -0.081123
3.370000000 0.06707 -0.097213 -0.242234 0.651785 -0.240852 0.652055 0.06479 -0.082168
3.380000000 0.065709 -0.09933 -0.221607 0.658843 -0.220231 0.659057 0.063857 -0.083232
3.390000000 0.064193 -0.101511 -0.20082 0.665291 -0.199439 0.66543 0.06262 -0.084193
3.400000000 0.062449 -0.10356 -0.179797 0.671041 -0.178424 0.671193 0.061204 -0.085142
3.410000000 0.060402 -0.10551 -0.158605 0.676169 -0.157234 0.676236 0.059607 -0.086016
3.420000000 0.058252 -0.107355 -0.137309 0.680572 -0.135962 0.680574 0.057828 -0.086878
3.430000000 0.055935 -0.109011 -0.11587 0.684253 -0.114499 0.684228 0.055875 -0.087606
3.440000000 0.053486 -0.110573 -0.094338 0.68723 -0.09292 0.687193 0.053934 -0.088209
3.450000000 0.050989 -0.111945 -0.072751 0.68951 -0.071267 0.689454 0.051827 -0.088768
3.460000000 0.048439 -0.113166 -0.051055 0.691169 -0.049586 0.690976 0.049764 -0.089316
3.470000000 0.045893 -0.114309 -0.029363 0.69213 -0.027886 0.691845 0.047613 -0.089768
3.480000000 0.043371 -0.115313 -0.007657 0.69241 -0.006153 0.692039 0.045586 -0.09039
3.490000000 0.041033 -0.116228 0.014052 0.692027 0.015545 0.69162 0.043578 -0.091029
3.500000000 0.038639 -0.117196 0.035748 0.690967 0.037202 0.690489 0.041601 -0.091746
3.510000000 0.036355 -0.118142 0.05734 0.689248 0.058743 0.688708 0.039685 -0.092582
3.520000000 0.034098 -0.119141 0.078809 0.686845 0.080179 0.686249 0.037802 -0.093467
3.530000000 0.031861 -0.120235 0.100213 0.683731 0.101568 0.683057 0.035895 -0.094469
3.540000000 0.029625 -0.121331 0.121459 0.679964 0.122737 0.67927 0.033931 -0.095637
3.550000000 0.0274 -0.122506 0.142489 0.675527 0.143732 0.674826 0.031972 -0.096883
3.560000000 0.025083 -0.123623 0.163392 0.670424 0.164585 0.669719 0.029958 -0.0981
3.570000000 0.022822 -0.124803 0.184064 0.664694 0.185245 0.663952 0.027854 -0.099337
3.580000000 0.020465 -0.125843 0.204583 0.658304 0.205729 0.657539 0.025688 -0.100553
3.590000000 0.017948 -0.126849 0.224911 0.651354 0.226098 0.650569 0.023484 -0.101685
3.600000000 0.015467 -0.127719 0.245085 0.643728 0.246228 0.642901 0.021189 -0.102763
3.610000000 0.012926 -0.128392 0.264955 0.635502 0.266131 0.634594 0.018888 -0.103753
3.620000000 0.010365 -0.128968 0.284651 0.626636 0.285807 0.625682 0.016563 -0.104498
3.630000000 0.007786 -0.129339 0.304055 0.617185 0.305168 0.61614 0.014204 -0.105091
3.640000000 0.005234 -0.129469 0.323152 0.607088 0.324213 0.605972 0.011998 -0.105517
3.650000000 0.002779 -0.129512 0.341892 0.596395 0.342927 0.595251 0.009768 -0.105821
3.660000000 0.000311 -0.129362 0.360211 0.58515 0.36121 0.583949 0.007655 -0.10598
3.670000000 -0.002069 -0.129086 0.378223 0.57332 0.379112 0.572127 0.005553 -0.106083
3.680000000 -0.004418 -0.128698 0.395774 0.560957 0.396594 0.559719 0.003583 -0.105971
3.690000000 -0.006723 -0.128239 0.412896 0.548026 0.413664 0.546799 0.001659 -0.106015
3.700000000 -0.009085 -0.127676 0.429605 0.534593 0.430326 0.533319 -0.000241 -0.106018
3.710000000 -0.01141 -0.127174 0.445896 0.520663 0.446583 0.519347 -0.002128 -0.105935
3.720000000 -0.013718 -0.126656 0.461773 0.506142 0.462396 0.504854 -0.004078 -0.105875
3.730000000 -0.0162 -0.126164 0.477092 0.491211 0.477657 0.489903 -0.006025 -0.105865
3.740000000 -0.018731 -0.125587 0.492012 0.475761 0.492553 0.474449 -0.008054 -0.105811
3.750000000 -0.021427 -0.125022 0.506413 0.45993 0.506875 0.45856 -0.010258 -0.105738
3.760000000 -0.024206 -0.124371 0.52036 0.443657 0.520764 0.442264 -0.012553 -0.105674
3.770000000 -0.027167 -0.123601 0.533773 0.427046 0.53416 0.425593 -0.01503 -0.105475
3.780000000 -0.030243 -0.122725 0.54663 0.409952 0.54697 0.408566 -0.017569 -0.105205
3.790000000 -0.033356 -0.121689 0.559034 0.3926 0.559302 0.391185 -0.020256 -0.104697
3.800000000 -0.036473 -0.120532 0.570895 0.37491 0.571105 0.373436 -0.022946 -0.104022
3.810000000 -0.039575 -0.119163 0.582179 0.356796 0.582381 0.355306 -0.025621 -0.103186
3.820000000 -0.042539 -0.117647 0.592925 0.338362 0.593073 0.336904 -0.028297 -0.102119
3.830000000 -0.045449 -0.11596 0.603115 0.319569 0.603184 0.31811 -0.030885 -0.100882
3.840000000 -0.048073 -0.114126 0.612685 0.30037 0.612704 0.298914 -0.033342 -0.099455
3.850000000 -0.050522 -0.112098 0.621592 0.280849 0.621581 0.279375 -0.035662 -0.097906
3.860000000 -0.052749 -0.110091 0.629848 0.260945 0.6298 0.259529 -0.037856 -0.096318
3.870000000 -0.054707 -0.10799 0.637518 0.240819 0.637395 0.239347 -0.039852 -0.094601
3.880000000 -0.056492 -0.105931 0.644474 0.220494 0.644307 0.218982 -0.041703 -0.09289
3.890000000 -0.058077 -0.103938 0.65071 0.199908 0.650523 0.198421 -0.043521 -0.091215
3.900000000 -0.059565 -0.102002 0.65634 0.179335 0.656061 0.177759 -0.045258 -0.089594
3.910000000 -0.060918 -0.100119 0.661363 0.158582 0.660976 0.157053 -0.04701 -0.087978
3.920000000 -0.062273 -0.098231 0.665772 0.137721 0.665275 0.136218 -0.048729 -0.086377
3.930000000 -0.063618 -0.09646 0.669541 0.116791 0.668936 0.115306 -0.050495 -0.084781
3.940000000 -0.065027 -0.094653 0.672652 0.095757 0.671988 0.094315 -0.052338 -0.083203
3.950000000 -0.066439 -0.092747 0.675116 0.074614 0.674371 0.073272 -0.054236 -0.081485
3.960000000 -0.067934 -0.090813 0.676882 0.053372 0.67608 0.052141 -0.056151 -0.079676
3.970000000 -0.069384 -0.088714 0.677895 0.032066 0.677091 0.03087 -0.05805 -0.077774
3.980000000 -0.071002 -0.086552 0.678216 0.010769 0.677419 0.009597 -0.059978 -0.075833
3.990000000 -0.07253 -0.084141 0.677853 -0.010579 0.677042 -0.011662 -0.061835 -0.073694
4.000000000 -0.07406 -0.081662 0.676801 -0.031807 0.675987 -0.032931 -0.063609 -0.071489
4.010000000 -0.075479 -0.079116 0.675032 -0.052996 0.674249 -0.054136 -0.06529 -0.069259
4.020000000 -0.076868 -0.076447 0.672738 -0.074097 0.671838 -0.075216 -0.066795 -0.066964
4.030000000 -0.078123 -0.073745 0.669781 -0.09506 0.668812 -0.096169 -0.068131 -0.064706
4.040000000 -0.079281 -0.07105 0.666276 -0.115959 0.66524 -0.117056 -0.069363 -0.062476
4.050000000 -0.080284 -0.068472 0.662146 -0.136719 0.660976 -0.137777 -0.070388 -0.06034
4.060000000 -0.081181 -0.06593 0.657384 -0.157349 0.65614 -0.158315 -0.071276 -0.05837
4.070000000 -0.082036 -0.063487 0.651982 -0.17785 0.650659 -0.178725 -0.072132 -0.056411
4.080000000 -0.082742 -0.061176 0.645893 -0.198134 0.644511 -0.198913 -0.072841 -0.054572
4.090000000 -0.083492 -0.059006 0.639128 -0.218223 0.637753 -0.218842 -0.07349 -0.052859
4.100000000 -0.084125 -0.056806 0.631603 -0.238077 0.630277 -0.238566 -0.074031 -0.051168
4.110000000 -0.084741 -0.054696 0.623495 -0.257621 0.622188 -0.25803 -0.07448 -0.049476
4.120000000 -0.085275 -0.052578 0.614699 -0.276856 0.613449 -0.277219 -0.07492 -0.047816
4.130000000 -0.085762 -0.050471 0.605332 -0.295782 0.604141 -0.296114 -0.075239 -0.046022
4.140000000 -0.086139 -0.048323 0.595405 -0.314424 0.594192 -0.314727 -0.075511 -0.044173
4.150000000 -0.086388 -0.046034 0.584931 -0.332686 0.58375 -0.333032 -0.075515 -0.04222
4.160000000 -0.086468 -0.043708 0.573998 -0.350683 0.572725 -0.350972 -0.075497 -0.040194
4.170000000 -0.086458 -0.041213 0.562525 -0.368343 0.561259 -0.368587 -0.075304 -0.037988
4.180000000 -0.086229 -0.038651 0.550545 -0.385679 0.549266 -0.385813 -0.074858 -0.035668
4.190000000 -0.085753 -0.035908 0.538027 -0.402659 0.536747 -0.402724 -0.074346 -0.033274
4.200000000 -0.085149 -0.033211 0.525021 -0.419267 0.523727 -0.419228 -0.073563 -0.030841
4.210000000 -0.084261 -0.030508 0.511453 -0.435451 0.510182 -0.435289 -0.072616 -0.02841
4.220000000 -0.083116 -0.027837 0.497301 -0.451204 0.496143 -0.450951 -0.071466 -0.026004
4.230000000 -0.081798 -0.025159 0.482635 -0.466423 0.481548 -0.466152 -0.070131 -0.023639
4.240000000 -0.080357 -0.022632 0.4674 -0.481122 0.466404 -0.480866 -0.068813 -0.021446
4.250000000 -0.078764 -0.020189 0.451739 -0.495301 0.450807 -0.495055 -0.067304 -0.01923
4.260000000 -0.077141 -0.017883 0.435595 -0.508949 0.43472 -0.508753 -0.065855 -0.0172
4.270000000 -0.075547 -0.01567 0.419079 -0.522103 0.418252 -0.521895 -0.064345 -0.015306
4.280000000 -0.073972 -0.013635 0.402181 -0.534683 0.40132 -0.53453 -0.063 -0.013457
4.290000000 -0.07252 -0.011787 0.384941 -0.546807 0.384049 -0.546605 -0.061633 -0.011772
4.300000000 -0.07116 -0.009957 0.367363 -0.558365 0.366442 -0.558135 -0.060483 -0.010211
4.310000000 -0.069976 -0.008329 0.349449 -0.569461 0.348532 -0.569129 -0.059414 -0.008727
4.320000000 -0.068908 -0.006734 0.331192 -0.579995 0.330329 -0.579548 -0.058503 -0.00724
4.330000000 -0.067983 -0.005206 0.312671 -0.589947 0.311891 -0.589433 -0.057535 -0.005833
4.340000000 -0.067183 -0.003683 0.293802 -0.599301 0.293149 -0.598723 -0.056698 -0.004364
4.350000000 -0.066339 -0.002202 0.274683 -0.607958 0.274151 -0.60738 -0.055849 -0.00301
4.360000000 -0.065559 -0.00072 0.255308 -0.616024 0.254875 -0.615493 -0.054932 -0.001662
4.370000000 -0.064732 0.000731 0.23566 -0.623395 0.23533 -0.622896 -0.053919 -0.000336
4.380000000 -0.063801 0.002134 0.21587 -0.630087 0.215533 -0.629696 -0.052818 0.000898
4.390000000 -0.062754 0.003499 0.195887 -0.636129 0.195583 -0.635831 -0.051627 0.002019
4.400000000 -0.061538 0.004722 0.175764 -0.641556 0.17541 -0.641298 -0.050278 0.003071
4.410000000 -0.060187 0.005821 0.155477 -0.646336 0.155077 -0.646178 -0.048718 0.003991
4.420000000 -0.058714 0.006741 0.13505 -0.650526 0.13458 -0.650357 -0.047077 0.004768
4.430000000 -0.057051 0.007544 0.11453 -0.654134 0.114037 -0.653942 -0.04522 0.005411
4.440000000 -0.055196 0.008131 0.093907 -0.657142 0.093433 -0.656941 -0.043348 0.005825
4.450000000 -0.053291 0.00852 0.0732 -0.659565 0.072689 -0.659266 -0.041323 0.006103
4.460000000 -0.051295 0.008683 0.052385 -0.661337 0.051941 -0.661095 -0.039284 0.006269
4.470000000 -0.049174 0.008704 0.031573 -0.662404 0.031198 -0.662165 -0.037356 0.006158
4.480000000 -0.047199 0.008534 0.010699 -0.66281 0.010366 -0.662606 -0.035369 0.005998
4.490000000 -0.045216 0.008232 -0.010108 -0.662527 -0.010384 -0.662378 -0.033497 0.005746
4.500000000 -0.04327 0.007911 -0.030921 -0.661471 -0.031162 -0.661416 -0.031656 0.005412
4.510000000 -0.041277 0.007518 -0.05161 -0.659774 -0.051953 -0.659776 -0.02988 0.005048
4.520000000 -0.039405 0.007102 -0.072221 -0.657325 -0.072656 -0.657379 -0.028232 0.00472
4.530000000 -0.037613 0.006741 -0.092698 -0.654248 -0.093232 -0.654326 -0.026533 0.004362
4.540000000 -0.035778 0.006436 -0.113106 -0.650551 -0.113716 -0.650607 -0.024918 0.004041
4.550000000 -0.033998 0.00605 -0.133344 -0.646211 -0.134047 -0.646236 -0.023369 0.003749
4.560000000 -0.032193 0.005774 -0.153526 -0.641339 -0.154187 -0.641302 -0.021861 0.003459
4.570000000 -0.030445 0.005536 -0.173524 -0.635808 -0.174193 -0.635789 -0.020262 0.003068
4.580000000 -0.028687 0.005224 -0.193357 -0.62966 -0.194018 -0.629622 -0.018695 0.002718
4.590000000 -0.026929 0.004909 -0.213048 -0.622929 -0.213707 -0.62287 -0.017108 0.002175
4.600000000 -0.025154 0.004438 -0.232472 -0.615587 -0.233112 -0.615564 -0.015466 0.001565
4.610000000 -0.023436 0.003852 -0.251634 -0.607604 -0.2523 -0.607596 -0.0138 0.000732
4.620000000 -0.021777 0.003126 -0.270518 -0.59902 -0.271188 -0.59905 -0.012204 -0.000212
4.630000000 -0.020157 0.002198 -0.28901 -0.58973 -0.289776 -0.589821 -0.010737 -0.001396
4.640000000 -0.018818 0.001086 -0.30718 -0.57995 -0.308013 -0.580043 -0.009259 -0.002719
4.650000000 -0.017497 -0.000166 -0.324966 -0.569545 -0.32587 -0.569609 -0.00789 -0.004227
4.660000000 -0.016479 -0.001569 -0.342335 -0.558599 -0.343363 -0.558606 -0.006709 -0.0058
4.670000000 -0.015622 -0.003204 -0.359433 -0.547164 -0.360509 -0.547078 -0.005628 -0.007437
4.680000000 -0.015078 -0.004832 -0.376137 -0.53524 -0.377293 -0.535091 -0.004693 -0.009226
4.690000000 -0.014731 -0.006514 -0.392494 -0.522743 -0.393674 -0.522532 -0.003875 -0.011014
4.700000000 -0.014634 -0.008297 -0.408517 -0.509801 -0.40972 -0.509514 -0.003269 -0.012772
4.710000000 -0.014722 -0.010005 -0.424139 -0.496374 -0.425348 -0.496028 -0.002712 -0.01452
4.720000000 -0.014951 -0.011783 -0.439323 -0.482475 -0.440527 -0.482054 -0.002327 -0.01613
4.730000000 -0.015312 -0.013366 -0.454129 -0.468083 -0.455328 -0.467652 -0.00188 -0.017753
4.740000000 -0.015752 -0.014931 -0.46835 -0.453218 -0.469588 -0.452739 -0.001518 -0.019226
4.750000000 -0.016201 -0.016427 -0.48213 -0.437957 -0.48337 -0.437429 -0.001046 -0.020702
4.760000000 -0.016613 -0.017923 -0.495331 -0.422245 -0.496605 -0.421688 -0.000617 -0.02199
4.770000000 -0.017057 -0.019324 -0.507959 -0.406144 -0.509231 -0.405531 -9.5e-05 -0.02329
4.780000000 -0.017322 -0.020755 -0.520035 -0.389724 -0.52137 -0.389025 0.000387 -0.024649
4.790000000 -0.017616 -0.022216 -0.531558 -0.372904 -0.532883 -0.372102 0.000893 -0.025999
4.800000000 -0.017915 -0.02378 -0.542537 -0.35581 -0.543868 -0.35494 0.001316 -0.027367
4.810000000 -0.018211 -0.025374 -0.552985 -0.338311 -0.554341 -0.337373 0.001698 -0.028842
4.820000000 -0.018475 -0.027035 -0.562943 -0.320513 -0.56423 -0.319479 0.001932 -0.030329
4.830000000 -0.018927 -0.028838 -0.57232 -0.302386 -0.573547 -0.301257 0.002013 -0.031916
4.840000000 -0.019361 -0.030658 -0.581144 -0.283975 -0.582311 -0.282788 0.001885 -0.033522
4.850000000 -0.019919 -0.032459 -0.589331 -0.265232 -0.590502 -0.264019 0.001533 -0.035108
4.860000000 -0.020718 -0.034265 -0.596955 -0.246302 -0.598041 -0.245079 0.000974 -0.036741
4.870000000 -0.021664 -0.036012 -0.603919 -0.227181 -0.604933 -0.225916 0.000138 -0.038344
4.880000000 -0.022676 -0.037717 -0.610227 -0.20795 -0.611178 -0.206626 -0.000977 -0.039842
4.890000000 -0.023837 -0.039247 -0.615892 -0.188545 -0.616821 -0.187161 -0.002223 -0.041264
4.900000000 -0.025133 -0.040712 -0.620886 -0.169041 -0.621803 -0.167594 -0.003637 -0.042598
4.910000000 -0.026515 -0.042027 -0.625242 -0.149476 -0.626154 -0.147911 -0.005306 -0.043864
4.920000000 -0.027903 -0.043121 -0.628987 -0.129722 -0.629869 -0.128142 -0.006944 -0.045076
4.930000000 -0.029318 -0.044158 -0.63211 -0.109906 -0.632896 -0.10815 -0.008748 -0.046218
4.940000000 -0.030802 -0.045109 -0.634556 -0.08994 -0.635319 -0.088141 -0.010536 -0.04734
4.950000000 -0.03222 -0.045896 -0.636322 -0.069894 -0.637018 -0.06803 -0.012289 -0.048395
4.960000000 -0.03371 -0.046695 -0.637467 -0.049824 -0.638099 -0.047845 -0.014031 -0.049545
4.970000000 -0.035119 -0.047499 -0.637926 -0.029699 -0.638449 -0.027729 -0.015738 -0.050794
4.980000000 -0.036583 -0.048201 -0.637746 -0.009659 -0.638156 -0.00766 -0.017516 -0.052011
4.990000000 -0.038029 -0.049112 -0.636838 0.01024 -0.637158 0.012267 -0.019147 -0.053318
5.000000000 -0.039611 -0.050029 -0.635361 0.030018 -0.635582 0.032079 -0.020819 -0.054809
5.010000000 -0.041242 -0.051057 -0.633247 0.049593 -0.633377 0.05169 -0.022529 -0.056356
5.020000000 -0.043024 -0.052051 -0.630612 0.069002 -0.630647 0.071083 -0.024191 -0.057973
5.030000000 -0.045037 -0.053147 -0.627434 0.08812 -0.62739 0.090222 -0.026124 -0.059664
5.040000000 -0.047226 -0.054142 -0.623711 0.107056 -0.623599 0.109136 -0.028159 -0.061348
5.050000000 -0.049675 -0.055188 -0.619489 0.125855 -0.619271 0.127942 -0.030293 -0.062986
5.060000000 -0.052356 -0.056066 -0.61477 0.144461 -0.614477 0.146522 -0.032673 -0.064563
5.070000000 -0.055255 -0.056719 -0.609584 0.162969 -0.609212 0.165017 -0.035184 -0.065896
5.080000000 -0.058354 -0.057152 -0.603828 0.181304 -0.603409 0.183398 -0.037879 -0.067059
5.090000000 -0.061578 -0.057298 -0.597576 0.199553 -0.597094 0.201597 -0.040704 -0.067907
5.100000000 -0.064887 -0.057216 -0.590894 0.21762 -0.590268 0.219637 -0.043536 -0.06852
5.110000000 -0.068206 -0.056841 -0.583682 0.235532 -0.583002 0.237576 -0.046509 -0.068725
5.120000000 -0.071522 -0.056136 -0.575927 0.25329 -0.575186 0.255282 -0.049496 -0.068696
5.130000000 -0.074726 -0.05521 -0.567701 0.270806 -0.56689 0.272795 -0.052438 -0.068318
5.140000000 -0.077896 -0.054132 -0.559033 0.2881 -0.558105 0.290091 -0.055385 -0.067709
5.150000000 -0.080946 -0.052774 -0.54981 0.305169 -0.548817 0.307093 -0.058313 -0.06691
5.160000000 -0.083821 -0.051333 -0.540113 0.321943 -0.538989 0.32387 -0.06113 -0.065839
5.170000000 -0.086609 -0.049729 -0.52981 0.338465 -0.528596 0.340356 -0.063937 -0.064611
5.180000000 -0.089216 -0.048064 -0.518942 0.354634 -0.517678 0.356478 -0.066772 -0.063217
5.190000000 -0.091792 -0.046409 -0.50758 0.370505 -0.506221 0.372276 -0.069613 -0.061754
5.200000000 -0.094257 -0.044583 -0.495551 0.386005 -0.494163 0.387691 -0.072384 -0.060084
5.210000000 -0.09667 -0.04275 -0.483081 0.401105 -0.481609 0.402747 -0.075208 -0.058345
5.220000000 -0.098971 -0.04088 -0.470033 0.41578 -0.468534 0.417375 -0.07799 -0.056483
5.230000000 -0.101222 -0.038913 -0.456569 0.430054 -0.455022 0.431561 -0.080856 -0.05449
5.240000000 -0.103473 -0.036918 -0.442669 0.443887 -0.441071 0.445346 -0.083703 -0.052399
5.250000000 -0.105665 -0.034803 -0.428399 0.457267 -0.426763 0.458692 -0.086599 -0.050132
5.260000000 -0.107898 -0.032565 -0.413783 0.470232 -0.412025 0.471593 -0.089501 -0.047815
5.270000000 -0.110076 -0.030183 -0.39879 0.482714 -0.396958 0.484025 -0.092312 -0.045251
5.280000000 -0.112227 -0.027652 -0.383434 0.494766 -0.38155 0.495997 -0.095125 -0.042513
5.290000000 -0.114344 -0.025003 -0.367774 0.50632 -0.365822 0.507438 -0.097907 -0.039732
5.300000000 -0.116334 -0.022174 -0.351716 0.517364 -0.349745 0.518362 -0.100526 -0.036786
5.310000000 -0.118202 -0.019166 -0.335271 0.527865 -0.333298 0.528767 -0.102992 -0.03372
5.320000000 -0.119952 -0.01608 -0.318539 0.537752 -0.316537 0.538605 -0.105383 -0.03054
5.330000000 -0.121526 -0.012896 -0.301436 0.547092 -0.299456 0.547852 -0.107572 -0.027235
5.340000000 -0.122955 -0.00953 -0.284052 0.555862 -0.282115 0.556564 -0.109636 -0.023832
5.350000000 -0.12423 -0.006055 -0.266425 0.564046 -0.264437 0.56473 -0.111534 -0.020419
5.360000000 -0.125325 -0.002557 -0.248536 0.571668 -0.246519 0.572294 -0.113215 -0.01694
5.370000000 -0.126326 0.001116 -0.230447 0.578806 -0.2284 0.579362 -0.114794 -0.013422
5.380000000 -0.127114 0.004676 -0.212162 0.585335 -0.210033 0.585915 -0.116216 -0.009983
5.390000000 -0.127933 0.008285 -0.193645 0.591429 -0.191476 0.591851 -0.117505 -0.00654
5.400000000 -0.128542 0.011874 -0.174991 0.596889 -0.172781 0.597275 -0.11874 -0.003052
5.410000000 -0.129158 0.015467 -0.156198 0.601851 -0.15395 0.602057 -0.119803 0.000403
5.420000000 -0.12964 0.019064 -0.137264 0.606148 -0.135011 0.606217 -0.120858 0.003861
5.430000000 -0.130109 0.022634 -0.11819 0.609833 -0.11598 0.609798 -0.121781 0.007352
5.440000000 -0.130453 0.026277 -0.099057 0.612818 -0.096925 0.612691 -0.122611 0.010793
5.450000000 -0.1307 0.029925 -0.079866 0.615148 -0.077791 0.614957 -0.123402 0.014333
5.460000000 -0.130866 0.033642 -0.060632 0.616775 -0.058626 0.616503 -0.124063 0.01788
5.470000000 -0.130933 0.037317 -0.041366 0.617768 -0.039434 0.617471 -0.124559 0.021399
5.480000000 -0.130932 0.041055 -0.022174 0.618099 -0.020252 0.617802 -0.124936 0.025076
5.490000000 -0.13072 0.044848 -0.003011 0.617789 -0.001034 0.617515 -0.125167 0.02868
5.500000000 -0.130385 0.048653 0.016085 0.616995 0.01815 0.616655 -0.125165 0.032397
5.510000000 -0.129927 0.052504 0.035159 0.615552 0.037244 0.615196 -0.125011 0.036135
5.520000000 -0.129238 0.056323 0.054058 0.61366 0.056227 0.613253 -0.12464 0.03992
5.530000000 -0.128514 0.060128 0.072924 0.611285 0.075071 0.610755 -0.124077 0.043839
5.540000000 -0.127596 0.064024 0.091692 0.608407 0.09381 0.60776 -0.12333 0.047717
5.550000000 -0.126522 0.067886 0.110356 0.605051 0.112399 0.604333 -0.122344 0.051585
5.560000000 -0.125217 0.07172 0.12889 0.601162 0.130856 0.600371 -0.121157 0.055443
5.570000000 -0.123719 0.075508 0.147289 0.596675 0.149164 0.595803 -0.119751 0.059284
5.580000000 -0.122073 0.079267 0.16557 0.591601 0.167435 0.590701 -0.118126 0.063051
5.590000000 -0.120234 0.082864 0.183673 0.585935 0.185487 0.585001 -0.116267 0.066777
5.600000000 -0.118185 0.086484 0.201604 0.57966 0.203387 0.578708 -0.114209 0.070447
5.610000000 -0.116033 0.089968 0.219287 0.572787 0.221043 0.571861 -0.112049 0.074101
5.620000000 -0.11378 0.093436 0.236833 0.565366 0.238575 0.5644 -0.109671 0.077658
5.630000000 -0.111381 0.096841 0.254133 0.55741 0.255856 0.556396 -0.107149 0.081275
5.640000000 -0.108877 0.100292 0.271187 0.548958 0.272916 0.547885 -0.10458 0.084836
5.650000000 -0.106272 0.103601 0.287949 0.539945 0.289673 0.538818 -0.10183 0.088436
5.660000000 -0.103538 0.10696 0.304458 0.530501 0.306203 0.529304 -0.099046 0.092046
5.670000000 -0.100725 0.110288 0.320711 0.520598 0.322422 0.519341 -0.096137 0.095602
5.680000000 -0.097827 0.113579 0.336644 0.510197 0.338313 0.508889 -0.093155 0.099139
5.690000000 -0.094808 0.116809 0.352246 0.499381 0.353863 0.49802 -0.090155 0.10267
5.700000000 -0.091717 0.119896 0.367472 0.488077 0.369052 0.486623 -0.087057 0.106195
5.710000000 -0.088566 0.123001 0.38229 0.476316 0.383797 0.474865 -0.083912 0.109558
5.720000000 -0.0852 0.125906 0.396693 0.464078 0.398164 0.462607 -0.08069 0.112929
5.730000000 -0.081834 0.128719 0.410626 0.451357 0.412068 0.449849 -0.077426 0.116148
5.740000000 -0.078282 0.131451 0.424134 0.438187 0.425561 0.436633 -0.074107 0.119258
5.750000000 -0.074659 0.134053 0.437213 0.424664 0.438612 0.423023 -0.070778 0.122249
5.760000000 -0.07093 0.13658 0.449875 0.410692 0.451231 0.409008 -0.067276 0.125138
5.770000000 -0.067165 0.138977 0.462124 0.396348 0.463428 0.394605 -0.06372 0.127855
5.780000000 -0.063369 0.141272 0.473955 0.381637 0.475175 0.379843 -0.060176 0.130485
5.790000000 -0.059438 0.143405 0.485333 0.366641 0.486513 0.364807 -0.056546 0.132839
5.800000000 -0.055484 0.14546 0.496286 0.3513 0.497409 0.349432 -0.052831 0.135039
5.810000000 -0.051451 0.147199 0.506855 0.335681 0.507892 0.333822 -0.049103 0.137025
5.820000000 -0.047412 0.148927 0.516929 0.319778 0.517881 0.317898 -0.045315 0.138807
5.830000000 -0.043279 0.150298 0.526484 0.303597 0.527374 0.301718 -0.041457 0.140361
5.840000000 -0.039034 0.151563 0.535537 0.287116 0.536353 0.285248 -0.037591 0.141641
5.850000000 -0.034724 0.152538 0.544022 0.2704 0.544749 0.268543 -0.033649 0.14266
5.860000000 -0.030442 0.153344 0.551972 0.253428 0.552653 0.251557 -0.029597 0.14339
5.870000000 -0.026015 0.153977 0.559317 0.23617 0.559957 0.234314 -0.025454 0.14391
5.880000000 -0.021635 0.154291 0.566077 0.218702 0.566686 0.216829 -0.021331 0.144219
5.890000000 -0.017199 0.154414 0.572333 0.201013 0.572903 0.199111 -0.017044 0.144321
5.900000000 -0.012718 0.154361 0.57806 0.183121 0.578618 0.181215 -0.012739 0.144172
5.910000000 -0.008174 0.154159 0.583191 0.16503 0.5837 0.163078 -0.008384 0.143854
5.920000000 -0.003666 0.15378 0.587846 0.146774 0.588281 0.144812 -0.00393 0.143366
5.930000000 0.000833 0.153227 0.591988 0.12842 0.592353 0.126471 0.00062 0.142669
5.940000000 0.005434 0.152571 0.595617 0.109908 0.595933 0.10797 0.005179 0.141859
5.950000000 0.009951 0.151763 0.598699 0.091313 0.598897 0.08939 0.009845 0.140942
5.960000000 0.014467 0.150813 0.601167 0.072633 0.601321 0.070721 0.014518 0.139848
5.970000000 0.018965 0.149711 0.60309 0.053956 0.603169 0.05208 0.019138 0.138595
5.980000000 0.023394 0.148471 0.604374 0.035141 0.604414 0.033321 0.02386 0.137196
5.990000000 0.027931 0.147156 0.605047 0.01637 0.605028 0.014568 0.028601 0.135673
6.000000000 0.03229 0.145759 0.605087 -0.002422 0.605028 -0.004174 0.033362 0.134052
6.010000000 0.036693 0.144262 0.604447 -0.021195 0.604375 -0.022937 0.038003 0.132352
6.020000000 0.041037 0.142712 0.603168 -0.039916 0.603116 -0.041638 0.042669 0.130523
6.030000000 0.045256 0.141156 0.601385 -0.05866 0.601291 -0.060378 0.047211 0.128681
6.040000000 0.049397 0.13961 0.598959 -0.077354 0.598831 -0.079033 0.051676 0.126787
6.050000000 0.053446 0.138025 0.595991 -0.095975 0.595816 -0.097626 0.056071 0.124914
6.060000000 0.057459 0.136417 0.592482 -0.114499 0.592244 -0.116163 0.060358 0.122938
6.070000000 0.061238 0.134794 0.588392 -0.132915 0.588187 -0.134563 0.06455 0.120902
6.080000000 0.065033 0.133087 0.583806 -0.151176 0.583527 -0.152799 0.068653 0.118858
6.090000000 0.068727 0.131353 0.57866 -0.16931 0.578375 -0.170891 0.072634 0.116749
6.100000000 0.072252 0.129476 0.572971 -0.187167 0.572633 -0.188773 0.076534 0.114513
6.110000000 0.075757 0.127537 0.566799 -0.204841 0.566399 -0.206413 0.08044 0.112201
6.120000000 0.079119 0.125405 0.560006 -0.22225 0.559587 -0.223794 0.084156 0.109721
6.130000000 0.082331 0.123113 0.55272 -0.239368 0.552239 -0.240897 0.087787 0.1071
6.140000000 0.085397 0.120634 0.544852 -0.25623 0.544337 -0.25772 0.091212 0.104278
6.150000000 0.088356 0.117849 0.536462 -0.27281 0.535953 -0.274249 0.094522 0.101272
6.160000000 0.09111 0.114907 0.527609 -0.289159 0.527036 -0.290603 0.097669 0.098124
6.170000000 0.093617 0.111716 0.51825 -0.305304 0.517659 -0.306716 0.100522 0.094719
6.180000000 0.095953 0.108256 0.508432 -0.32115 0.507817 -0.322543 0.103187 0.091162
6.190000000 0.098031 0.10458 0.498164 -0.3368 0.497494 -0.338177 0.105544 0.087407
6.200000000 0.099917 0.100731 0.487474 -0.352158 0.486737 -0.353515 0.107674 0.083478
6.210000000 0.10154 0.096694 0.476289 -0.367265 0.475527 -0.368584 0.109542 0.079493
6.220000000 0.102981 0.092485 0.464697 -0.381993 0.463886 -0.383323 0.111123 0.075346
6.230000000 0.104204 0.088242 0.452688 -0.396457 0.451838 -0.397716 0.11245 0.071145
6.240000000 0.105282 0.083918 0.440232 -0.410498 0.439308 -0.411727 0.113603 0.066948
6.250000000 0.106263 0.079556 0.427302 -0.424067 0.426352 -0.425254 0.114536 0.062705
6.260000000 0.107158 0.075148 0.41391 -0.43721 0.412952 -0.438385 0.115304 0.058398
6.270000000 0.108031 0.070756 0.400097 -0.449919 0.399092 -0.451008 0.115943 0.054172
6.280000000 0.108807 0.066359 0.385857 -0.462154 0.384823 -0.4632 0.116497 0.049894
6.290000000 0.109558 0.06206 0.371149 -0.473892 0.370152 -0.474891 0.116976 0.045652
6.300000000 0.110374 0.057782 0.356086 -0.485157 0.355068 -0.48613 0.117362 0.041389
6.310000000 0.111222 0.0536 0.340627 -0.495948 0.33957 -0.496927 0.117755 0.037204
6.320000000 0.112018 0.049419 0.324834 -0.506298 0.32371 -0.507254 0.118069 0.03297
6.330000000 0.112808 0.045228 0.308669 -0.516185 0.307556 -0.517096 0.118382 0.028618
6.340000000 0.113543 0.041092 0.292277 -0.525549 0.29116 -0.526457 0.118641 0.024413
6.350000000 0.114266 0.037161 0.275643 -0.534466 0.274447 -0.53533 0.118753 0.020111
6.360000000 0.114801 0.033194 0.258751 -0.542851 0.257542 -0.543701 0.118872 0.015789
6.370000000 0.11526 0.029349 0.241653 -0.550728 0.240386 -0.551501 0.118836 0.011463
6.380000000 0.115547 0.025623 0.224287 -0.558033 0.223012 -0.558754 0.11874 0.007131
6.390000000 0.115626 0.021947 0.206789 -0.564734 0.205485 -0.56541 0.118421 0.002885
6.400000000 0.115468 0.0184 0.189035 -0.570853 0.187691 -0.571478 0.118003 -0.001315
6.410000000 0.115131 0.015028 0.17104 -0.576352 0.169795 -0.576865 0.117372 -0.00546
6.420000000 0.114537 0.011669 0.152917 -0.581303 0.151631 -0.581803 0.116524 -0.009523
6.430000000 0.113737 0.008446 0.134576 -0.585603 0.133318 -0.586089 0.115524 -0.013466
6.440000000 0.112639 0.005247 0.116043 -0.589329 0.114781 -0.589797 0.114307 -0.017278
6.450000000 0.111266 0.002239 0.097371 -0.592462 0.096155 -0.592907 0.112875 -0.021007
6.460000000 0.109663 -0.000843 0.078618 -0.595068 0.07737 -0.595509 0.111315 -0.024575
6.470000000 0.107837 -0.003758 0.059796 -0.597129 0.058533 -0.597575 0.10954 -0.02804
6.480000000 0.10582 -0.006691 0.040916 -0.598662 0.039594 -0.599086 0.107559 -0.031395
6.490000000 0.103638 -0.009564 0.022029 -0.599655 0.020662 -0.600038 0.105516 -0.034582
6.500000000 0.101269 -0.012457 0.003156 -0.600023 0.001739 -0.6004 0.103326 -0.037661
6.510000000 0.098702 -0.015331 -0.015684 -0.599869 -0.017142 -0.600135 0.100998 -0.040616
6.520000000 0.096097 -0.018104 -0.034486 -0.599019 -0.035941 -0.599247 0.098618 -0.043413
6.530000000 0.09331 -0.020903 -0.05318 -0.59758 -0.054665 -0.59775 0.096121 -0.046126
6.540000000 0.090482 -0.023657 -0.07183 -0.595505 -0.073328 -0.595607 0.093435 -0.048688
6.550000000 0.087574 -0.026399 -0.090428 -0.59282 -0.091859 -0.592866 0.090732 -0.051178
6.560000000 0.084605 -0.029119 -0.10893 -0.58951 -0.110377 -0.589546 0.087975 -0.053527
6.570000000 0.081607 -0.031707 -0.127348 -0.58561 -0.12872 -0.585596 0.085081 -0.055682
6.580000000 0.078596 -0.03435 -0.145661 -0.581166 -0.147036 -0.581162 0.082094 -0.057801
6.590000000 0.075624 -0.036869 -0.163852 -0.576104 -0.165226 -0.576128 0.07906 -0.059757
6.600000000 0.072644 -0.039316 -0.181916 -0.570572 -0.183306 -0.570595 0.075937 -0.061523
6.610000000 0.069739 -0.041668 -0.19979 -0.56452 -0.201214 -0.564534 0.072886 -0.063116
6.620000000 0.066821 -0.043817 -0.21749 -0.557972 -0.218935 -0.557976 0.06977 -0.064585
6.630000000 0.063915 -0.045882 -0.234991 -0.550917 -0.236522 -0.550875 0.066694 -0.065893
6.640000000 0.061096 -0.047708 -0.252257 -0.543342 -0.253819 -0.543223 0.063566 -0.067001
6.650000000 0.058378 -0.04929 -0.269252 -0.535221 -0.270812 -0.535022 0.060549 -0.067955
6.660000000 0.055656 -0.050688 -0.285922 -0.526511 -0.287495 -0.526273 0.057649 -0.068748
6.670000000 0.053044 -0.051801 -0.302326 -0.517261 -0.303846 -0.516919 0.05477 -0.069295
6.680000000 0.050452 -0.052661 -0.318398 -0.507432 -0.319888 -0.507026 0.051923 -0.069763
6.690000000 0.047925 -0.053323 -0.334097 -0.497011 -0.335539 -0.496571 0.049178 -0.070081
6.700000000 0.045441 -0.053758 -0.349474 -0.48608 -0.35087 -0.485641 0.046474 -0.070233
6.710000000 0.042976 -0.054165 -0.364553 -0.474558 -0.365884 -0.474153 0.043779 -0.070332
6.720000000 0.040516 -0.054397 -0.379241 -0.462593 -0.380557 -0.462199 0.041098 -0.070437
6.730000000 0.038013 -0.0546 -0.393592 -0.450189 -0.394873 -0.449816 0.038368 -0.070461
6.740000000 0.035427 -0.054706 -0.407543 -0.437368 -0.408868 -0.436992 0.035696 -0.07045
6.750000000 0.032842 -0.054779 -0.421091 -0.424153 -0.422464 -0.423777 0.032932 -0.070468
6.760000000 0.030158 -0.054786 -0.434271 -0.410608 -0.435618 -0.410171 0.030166 -0.070276
6.770000000 0.027328 -0.054741 -0.447008 -0.396685 -0.448378 -0.396175 0.027383 -0.070051
6.780000000 0.024482 -0.054576 -0.459335 -0.382385 -0.460676 -0.381801 0.02454 -0.069649
6.790000000 0.021531 -0.05428 -0.47116 -0.36774 -0.472462 -0.367068 0.021676 -0.069162
6.800000000 0.01846 -0.053906 -0.482508 -0.352625 -0.483736 -0.351917 0.018815 -0.068435
6.810000000 0.015342 -0.05327 -0.493329 -0.337175 -0.494475 -0.336439 0.015961 -0.06755
6.820000000 0.01228 -0.052562 -0.503574 -0.321279 -0.504669 -0.320533 0.013179 -0.066439
6.830000000 0.009223 -0.051714 -0.513316 -0.305063 -0.514379 -0.304294 0.010508 -0.065189
6.840000000 0.006392 -0.050648 -0.522466 -0.288445 -0.523525 -0.287747 0.007933 -0.063825
6.850000000 0.00358 -0.04946 -0.531117 -0.271545 -0.532144 -0.270869 0.005491 -0.062235
6.860000000 0.001023 -0.048196 -0.539214 -0.254338 -0.540294 -0.253656 0.003303 -0.060609
6.870000000 -0.001409 -0.04687 -0.546792 -0.236923 -0.547917 -0.236239 0.001291 -0.058965
6.880000000 -0.003584 -0.045469 -0.553849 -0.219306 -0.554966 -0.218537 -0.000574 -0.057334
6.890000000 -0.005617 -0.044045 -0.56041 -0.201503 -0.561513 -0.200649 -0.002281 -0.055754
6.900000000 -0.007474 -0.042643 -0.566482 -0.183614 -0.567527 -0.182683 -0.003851 -0.054223
6.910000000 -0.009152 -0.041254 -0.571928 -0.165514 -0.572925 -0.164519 -0.005366 -0.052698
6.920000000 -0.010693 -0.03985 -0.576798 -0.14733 -0.577738 -0.146296 -0.00676 -0.051223
6.930000000 -0.012185 -0.038336 -0.581015 -0.128974 -0.581867 -0.127952 -0.008026 -0.049892
6.940000000 -0.013647 -0.036866 -0.584666 -0.110463 -0.58544 -0.109447 -0.009288 -0.048513
6.950000000 -0.015066 -0.035368 -0.587639 -0.091857 -0.588322 -0.090878 -0.01052 -0.047164
6.960000000 -0.016536 -0.033802 -0.589888 -0.073106 -0.590576 -0.07216 -0.011692 -0.045809
6.970000000 -0.017943 -0.032162 -0.591478 -0.054335 -0.592152 -0.053451 -0.012872 -0.04445
6.980000000 -0.019436 -0.030349 -0.592443 -0.035484 -0.593127 -0.034632 -0.014022 -0.043031
6.990000000 -0.020898 -0.028474 -0.592792 -0.016711 -0.593525 -0.015824 -0.015068 -0.041468
7.000000000 -0.022265 -0.026519 -0.592587 0.00207 -0.593369 0.003006 -0.016044 -0.039774
7.010000000 -0.023583 -0.02446 -0.591879 0.020778 -0.592678 0.021842 -0.016896 -0.038028
7.020000000 -0.024733 -0.02219 -0.590698 0.039496 -0.591506 0.040638 -0.017507 -0.036176
7.030000000 -0.025792 -0.01986 -0.589047 0.058167 -0.589777 0.059376 -0.018006 -0.034191
7.040000000 -0.026757 -0.017529 -0.586836 0.076757 -0.587526 0.078045 -0.018268 -0.03221
7.050000000 -0.027556 -0.015164 -0.584051 0.095344 -0.584669 0.096603 -0.018323 -0.030226
7.060000000 -0.028138 -0.012851 -0.580605 0.113751 -0.581163 0.115038 -0.018262 -0.028194
7.070000000 -0.028603 -0.010628 -0.576555 0.132047 -0.577032 0.133348 -0.018028 -0.026226
7.080000000 -0.028786 -0.008524 -0.571785 0.150193 -0.572192 0.151478 -0.017652 -0.024277
7.090000000 -0.028856 -0.006519 -0.566325 0.168131 -0.566705 0.169392 -0.017096 -0.022363
7.100000000 -0.028739 -0.004654 -0.560224 0.185774 -0.560604 0.187067 -0.016454 -0.020505
7.110000000 -0.028486 -0.002894 -0.553543 0.203217 -0.553955 0.20451 -0.015831 -0.01871
7.120000000 -0.028112 -0.001274 -0.546363 0.220374 -0.546757 0.22168 -0.0152 -0.016938
7.130000000 -0.027813 0.000263 -0.538724 0.237311 -0.539062 0.238677 -0.014572 -0.015235
7.140000000 -0.027389 0.001756 -0.530591 0.25402 -0.530924 0.25548 -0.014038 -0.013545
7.150000000 -0.026988 0.00319 -0.522069 0.270506 -0.522343 0.272031 -0.013584 -0.011812
7.160000000 -0.026465 0.004657 -0.513077 0.28681 -0.513259 0.288383 -0.013138 -0.010093
7.170000000 -0.025904 0.006156 -0.503599 0.302886 -0.503709 0.304479 -0.012713 -0.008241
7.180000000 -0.025286 0.007637 -0.493628 0.318624 -0.493659 0.320215 -0.012252 -0.006541
7.190000000 -0.024487 0.009238 -0.483122 0.333979 -0.483045 0.335627 -0.0118 -0.004732
7.200000000 -0.02366 0.010891 -0.472098 0.348976 -0.471966 0.350611 -0.01121 -0.002919
7.210000000 -0.022754 0.01264 -0.460546 0.363477 -0.460364 0.365093 -0.010632 -0.001152
7.220000000 -0.021733 0.014361 -0.448534 0.377549 -0.44827 0.379146 -0.009964 0.000598
7.230000000 -0.020653 0.016115 -0.43602 0.391104 -0.435751 0.392705 -0.00926 0.002247
7.240000000 -0.019362 0.017928 -0.423187 0.404257 -0.422852 0.405859 -0.008469 0.003774
7.250000000 -0.01797 0.019536 -0.409955 0.416978 -0.409573 0.418621 -0.007569 0.005089
7.260000000 -0.01651 0.021128 -0.396332 0.429308 -0.395929 0.430932 -0.006536 0.006222
7.270000000 -0.015006 0.022547 -0.382485 0.441245 -0.381975 0.442965 -0.005423 0.00716
7.280000000 -0.013297 0.023807 -0.368188 0.452885 -0.367605 0.454617 -0.004297 0.00785
7.290000000 -0.011767 0.024862 -0.3536 0.464133 -0.352899 0.465876 -0.003132 0.00836
7.300000000 -0.010228 0.025837 -0.3386 0.475007 -0.337784 0.47674 -0.002002 0.008666
7.310000000 -0.008747 0.026603 -0.323255 0.485397 -0.322352 0.48709 -0.0009 0.008803
7.320000000 -0.007337 0.027248 -0.307595 0.495194 -0.306578 0.496839 0.000236 0.008883
7.330000000 -0.006025 0.027757 -0.291642 0.504448 -0.290534 0.50601 0.001292 0.008831
7.340000000 -0.004776 0.028231 -0.275387 0.513094 -0.274199 0.514591 0.002334 0.008751
7.350000000 -0.003528 0.028537 -0.258935 0.521107 -0.257718 0.522541 0.003403 0.008565
7.360000000 -0.002342 0.028783 -0.242228 0.528544 -0.240998 0.529935 0.004525 0.008444
7.370000000 -0.00112 0.029136 -0.225352 0.535436 -0.224066 0.536776 0.005717 0.008417
7.380000000 8.3e-05 0.029454 -0.208214 0.541771 -0.20697 0.543098 0.006892 0.008362
7.390000000 0.001402 0.029795 -0.190913 0.547589 -0.189672 0.548914 0.008257 0.008334
7.400000000 0.002865 0.030117 -0.173448 0.552912 -0.172098 0.554234 0.009729 0.008357
7.410000000 0.00449 0.030405 -0.155823 0.557761 -0.154457 0.559082 0.011382 0.008333
7.420000000 0.00627 0.030621 -0.138007 0.562052 -0.136549 0.563312 0.013096 0.008293
7.430000000 0.00822 0.030782 -0.120127 0.565769 -0.118538 0.567004 0.015023 0.008056
7.440000000 0.010263 0.030755 -0.1021 0.568964 -0.100474 0.57009 0.016921 0.007821
7.450000000 0.012419 0.030625 -0.084069 0.571555 -0.08238 0.572641 0.018882 0.00735
7.460000000 0.014604 0.030329 -0.066052 0.573592 -0.064339 0.574596 0.02081 0.006719
7.470000000 0.01677 0.029947 -0.048108 0.575013 -0.046324 0.575944 0.022701 0.005981
7.480000000 0.018842 0.029313 -0.030103 0.575903 -0.028317 0.576754 0.024406 0.00509
7.490000000 0.020884 0.028531 -0.012155 0.57624 -0.010375 0.577001 0.025909 0.004042
7.500000000 0.022664 0.027671 0.005812 0.576028 0.007601 0.576755 0.027218 0.002944
7.510000000 0.024419 0.026726 0.023789 0.57527 0.025575 0.57592 0.028398 0.001746
7.520000000 0.025821 0.025774 0.041833 0.573953 0.043612 0.5746 0.029245 0.000595
7.530000000 0.027096 0.024784 0.059803 0.572148 0.061613 0.572739 0.029962 -0.00058
7.540000000 0.028037 0.023843 0.077844 0.569693 0.079683 0.570272 0.030414 -0.001572
7.550000000 0.028805 0.022966 0.095787 0.56679 0.097668 0.567315 0.030766 -0.002571
7.560000000 0.02954 0.02221 0.113672 0.56325 0.11557 0.563765 0.031123 -0.003479
7.570000000 0.030003 0.021542 0.131404 0.559233 0.133361 0.559637 0.0314 -0.00431
7.580000000 0.030563 0.02083 0.148978 0.554589 0.150942 0.554947 0.03168 -0.005185
7.590000000 0.031006 0.020193 0.16635 0.549493 0.168349 0.54974 0.031989 -0.006022
7.600000000 0.031555 0.019469 0.183524 0.54376 0.185494 0.543976 0.032338 -0.006897
7.610000000 0.032061 0.018783 0.200429 0.537529 0.202446 0.537646 0.032719 -0.007809
7.620000000 0.032652 0.017963 0.217122 0.530764 0.219103 0.53079 0.03309 -0.008831
7.630000000 0.033234 0.016954 0.23356 0.523447 0.235526 0.523369 0.033457 -0.010005
7.640000000 0.033764 0.015868 0.249758 0.515566 0.251736 0.515493 0.033798 -0.01124
7.650000000 0.034363 0.014528 0.265727 0.507143 0.267673 0.507027 0.034098 -0.012752
7.660000000 0.034784 0.013032 0.281378 0.498205 0.283307 0.498097 0.034234 -0.014269
7.670000000 0.035235 0.011426 0.296811 0.488743 0.298744 0.488564 0.034182 -0.015828
7.680000000 0.035435 0.009651 0.311927 0.478819 0.313913 0.478645 0.034022 -0.017463
7.690000000 0.03559 0.007835 0.32672 0.468472 0.328717 0.468226 0.033674 -0.018969
7.700000000 0.035494 0.00607 0.34117 0.45768 0.343236 0.457353 0.033151 -0.020508
7.710000000 0.035392 0.004281 0.355274 0.446504 0.357372 0.446079 0.03248 -0.021878
7.720000000 0.035062 0.00268 0.368979 0.43494 0.371096 0.434404 0.03166 -0.023177
7.730000000 0.034728 0.001166 0.382331 0.422994 0.384396 0.422316 0.030818 -0.024382
7.740000000 0.034375 -0.000168 0.395284 0.410706 0.397315 0.409871 0.029893 -0.025446
7.750000000 0.034001 -0.001384 0.407772 0.397956 0.409783 0.397032 0.028967 -0.026394
7.760000000 0.033661 -0.002522 0.419941 0.3848 0.421852 0.383807 0.028083 -0.027302
7.770000000 0.033438 -0.00339 0.431636 0.371173 0.433478 0.370106 0.027208 -0.028154
7.780000000 0.033215 -0.004273 0.442885 0.357142 0.444681 0.35608 0.026492 -0.029073
7.790000000 0.033179 -0.005157 0.453699 0.342695 0.455436 0.341626 0.025818 -0.029974
7.800000000 0.033152 -0.00601 0.463997 0.327938 0.465756 0.326822 0.025171 -0.031047
7.810000000 0.033179 -0.006889 0.473863 0.312816 0.475645 0.311656 0.02451 -0.032212
7.820000000 0.033153 -0.007899 0.483248 0.297395 0.485 0.296209 0.023797 -0.033573
7.830000000 0.033106 -0.008947 0.492122 0.281721 0.493893 0.280444 0.023076 -0.035002
7.840000000 0.032836 -0.010148 0.500506 0.265881 0.502254 0.26446 0.022259 -0.036635
7.850000000 0.032481 -0.011422 0.508435 0.249793 0.510131 0.248291 0.02133 -0.038289
7.860000000 0.031903 -0.012818 0.515803 0.233524 0.517419 0.231893 0.02032 -0.039953
7.870000000 0.031122 -0.014122 0.522701 0.217082 0.524158 0.215385 0.019239 -0.041568
7.880000000 0.029971 -0.015477 0.529055 0.200408 0.530403 0.198657 0.018084 -0.043104
7.890000000 0.028696 -0.016761 0.534834 0.183535 0.536048 0.181843 0.01679 -0.044499
7.900000000 0.027271 -0.01789 0.540059 0.166504 0.541172 0.164848 0.015528 -0.045802
7.910000000 0.025554 -0.018936 0.544659 0.149273 0.545717 0.147662 0.014153 -0.046882
7.920000000 0.023876 -0.01973 0.548713 0.131836 0.549775 0.130297 0.012964 -0.047742
7.930000000 0.022071 -0.020466 0.552153 0.114342 0.553195 0.112819 0.011791 -0.048415
7.940000000 0.020313 -0.02101 0.555067 0.096744 0.556151 0.095163 0.010642 -0.048936
7.950000000 0.01859 -0.021365 0.557426 0.079022 0.558495 0.077421 0.009705 -0.049319
7.960000000 0.016925 -0.021731 0.559286 0.061326 0.560326 0.059642 0.008875 -0.049552
7.970000000 0.015362 -0.022017 0.560644 0.043611 0.561609 0.041878 0.008067 -0.049655
7.980000000 0.013862 -0.022367 0.561557 0.025904 0.562402 0.024087 0.007224 -0.049752
7.990000000 0.012381 -0.022557 0.561887 0.008201 0.562633 0.006318 0.006404 -0.0498
8.000000000 0.011003 -0.022919 0.561708 -0.009516 0.562311 -0.011394 0.005619 -0.049864
8.010000000 0.009635 -0.023249 0.56095 -0.027192 0.561482 -0.029056 0.00476 -0.049882
8.020000000 0.008308 -0.023687 0.559592 -0.044867 0.560031 -0.046693 0.003774 -0.04992
8.030000000 0.006932 -0.024164 0.557594 -0.06256 0.557976 -0.064298 0.002688 -0.0499
8.040000000 0.005489 -0.024694 0.554928 -0.080165 0.555305 -0.081845 0.001438 -0.049967
8.050000000 0.003941 -0.02533 0.551678 -0.097629 0.552074 -0.099304 -8.3e-05 -0.05001
8.060000000 0.002281 -0.025823 0.547778 -0.114911 0.548203 -0.116592 -0.001763 -0.050066
8.070000000 0.00051 -0.026442 0.543315 -0.132041 0.54373 -0.133787 -0.00373 -0.050118
8.080000000 -0.001355 -0.026905 0.538388 -0.14895 0.538791 -0.150782 -0.005908 -0.050082
8.090000000 -0.003276 -0.027388 0.533008 -0.165685 0.533356 -0.167626 -0.008139 -0.050081
8.100000000 -0.005251 -0.027693 0.527152 -0.182229 0.527422 -0.184235 -0.010535 -0.04994
8.110000000 -0.00723 -0.027931 0.520928 -0.198586 0.521077 -0.200636 -0.013024 -0.049857
8.120000000 -0.009295 -0.028066 0.514232 -0.214768 0.514299 -0.216861 -0.015443 -0.049753
8.130000000 -0.011268 -0.028071 0.507088 -0.230719 0.507004 -0.232847 -0.017981 -0.049748
8.140000000 -0.013234 -0.02801 0.499406 -0.24649 0.499221 -0.248602 -0.020447 -0.049707
8.150000000 -0.015182 -0.027804 0.491215 -0.26195 0.49089 -0.264036 -0.022922 -0.049734
8.160000000 -0.01698 -0.027549 0.482415 -0.277125 0.482038 -0.279222 -0.025323 -0.049814
8.170000000 -0.018692 -0.027244 0.473129 -0.291972 0.472674 -0.294087 -0.027525 -0.049861
8.180000000 -0.020413 -0.026865 0.463295 -0.306449 0.462769 -0.308571 -0.029601 -0.04998
8.190000000 -0.021984 -0.026441 0.453004 -0.320554 0.452426 -0.322644 -0.031629 -0.050112
8.200000000 -0.023533 -0.025957 0.442294 -0.334269 0.441635 -0.336385 -0.033577 -0.050324
8.210000000 -0.025127 -0.02543 0.431225 -0.347699 0.430447 -0.349779 -0.03545 -0.050475
8.220000000 -0.026727 -0.024868 0.41981 -0.360835 0.418928 -0.362904 -0.03733 -0.050528
8.230000000 -0.028347 -0.024139 0.408064 -0.373658 0.407038 -0.375737 -0.039095 -0.050625
8.240000000 -0.029912 -0.023297 0.395914 -0.386206 0.394794 -0.388233 -0.04084 -0.050539
8.250000000 -0.031481 -0.022332 0.383442 -0.398428 0.382193 -0.400409 -0.042444 -0.050386
8.260000000 -0.033078 -0.021143 0.370565 -0.410298 0.369198 -0.412173 -0.043969 -0.049963
8.270000000 -0.034594 -0.019839 0.357291 -0.421714 0.35582 -0.423502 -0.045412 -0.049432
8.280000000 -0.036171 -0.018313 0.343618 -0.432633 0.342052 -0.434385 -0.046755 -0.048788
8.290000000 -0.037704 -0.016631 0.329554 -0.443026 0.327932 -0.444733 -0.048039 -0.047837
8.300000000 -0.039243 -0.014698 0.315136 -0.452919 0.31346 -0.454562 -0.049238 -0.046763
8.310000000 -0.040702 -0.012614 0.300405 -0.462222 0.298674 -0.463882 -0.050469 -0.045467
8.320000000 -0.042179 -0.010494 0.285467 -0.471022 0.283627 -0.472613 -0.051622 -0.044016
8.330000000 -0.043525 -0.008241 0.270258 -0.479323 0.268319 -0.480879 -0.052745 -0.042519
8.340000000 -0.044803 -0.005919 0.254867 -0.487228 0.252805 -0.488697 -0.053961 -0.040883
8.350000000 -0.0461 -0.003668 0.23923 -0.494672 0.237032 -0.496074 -0.055208 -0.039299
8.360000000 -0.04732 -0.001523 0.223353 -0.501722 0.220986 -0.503075 -0.056494 -0.037669
8.370000000 -0.048634 0.000679 0.20723 -0.508365 0.204819 -0.50958 -0.057861 -0.035997
8.380000000 -0.049908 0.002765 0.19088 -0.514524 0.188328 -0.515618 -0.059488 -0.034329
8.390000000 -0.051346 0.00484 0.174361 -0.520162 0.17173 -0.521089 -0.06111 -0.032548
8.400000000 -0.052913 0.0068 0.157621 -0.525191 0.154935 -0.525989 -0.062952 -0.030806
8.410000000 -0.054544 0.008762 0.140814 -0.529572 0.138093 -0.53025 -0.064925 -0.028934
8.420000000 -0.056215 0.010651 0.123822 -0.533407 0.12115 -0.533872 -0.066949 -0.026992
8.430000000 -0.057974 0.012619 0.106889 -0.536526 0.10423 -0.536938 -0.069087 -0.024957
8.440000000 -0.059763 0.014593 0.089865 -0.539082 0.087284 -0.539354 -0.071232 -0.02276
8.450000000 -0.06156 0.016689 0.072928 -0.54107 0.070306 -0.541255 -0.073362 -0.020361
8.460000000 -0.063267 0.018878 0.055938 -0.54252 0.053337 -0.542652 -0.075392 -0.017877
8.470000000 -0.064838 0.02111 0.03889 -0.543549 0.03631 -0.543524 -0.077267 -0.015278
8.480000000 -0.066225 0.02351 0.021831 -0.544013 0.01925 -0.543966 -0.079008 -0.012582
8.490000000 -0.067417 0.025957 0.004699 -0.544053 0.002152 -0.543926 -0.080518 -0.009852
8.500000000 -0.068332 0.028437 -0.012379 -0.543562 -0.014955 -0.543364 -0.081803 -0.007056
