! LibreCAL 5mOUNstcbC0A set FACTORY P1_LOAD
# GHz S RI R 50
0.000009000 0.068367 -0.00403
0.000010000 0.068226 -0.00367
0.000011000 0.067934 -0.003469
0.000012000 0.067862 -0.003249
0.000013000 0.067645 -0.003059
0.000014000 0.067624 -0.00281
0.000015000 0.067455 -0.002628
0.000016000 0.067406 -0.002412
0.000017000 0.067201 -0.002342
0.000018000 0.06743 -0.002305
0.000019000 0.067237 -0.00212
0.000020000 0.067127 -0.002159
0.000021000 0.067251 -0.002004
0.000022000 0.067159 -0.001859
0.000023000 0.067153 -0.001895
0.000024000 0.067107 -0.001831
0.000025000 0.067118 -0.001894
0.000026000 0.067059 -0.001794
0.000027000 0.067003 -0.001677
0.000028000 0.066987 -0.001659
0.000029000 0.066949 -0.001638
0.000030000 0.066942 -0.001579
0.000031000 0.066873 -0.00167
0.000032000 0.066919 -0.001539
0.000033000 0.066929 -0.001538
0.000034000 0.066876 -0.001535
0.000035000 0.066969 -0.001476
0.000036000 0.066896 -0.001486
0.000037000 0.066796 -0.00145
0.000038000 0.066896 -0.001347
0.000039000 0.066776 -0.001321
0.000040000 0.066761 -0.001321
0.000041000 0.066819 -0.001323
0.000042000 0.066773 -0.001202
0.000043000 0.066817 -0.001272
0.000044000 0.066691 -0.001372
0.000045000 0.066751 -0.001195
0.000046000 0.066778 -0.001246
0.000047000 0.066806 -0.001218
0.000048000 0.066655 -0.001309
0.000049000 0.066757 -0.00117
0.000050000 0.066737 -0.001155
0.000051000 0.066789 -0.001191
0.000052000 0.066766 -0.001112
0.000053000 0.0667 -0.001274
0.000054000 0.066662 -0.001199
0.000055000 0.066716 -0.001148
0.000056000 0.06667 -0.001157
0.000057000 0.066679 -0.001156
0.000058000 0.066657 -0.001208
0.000059000 0.066725 -0.001078
0.000060000 0.066672 -0.001096
0.000061000 0.066736 -0.001141
0.000062000 0.066679 -0.001099
0.000063000 0.066801 -0.001089
0.000064000 0.066791 -0.001117
0.000065000 0.066614 -0.001177
0.000066000 0.066657 -0.00118
0.000067000 0.066751 -0.001077
0.000068000 0.066766 -0.001177
0.000069000 0.066747 -0.001075
0.000070000 0.06669 -0.001178
0.000071000 0.066742 -0.001104
0.000072000 0.066712 -0.001079
0.000073000 0.066786 -0.001169
0.000074000 0.06671 -0.001108
0.000075000 0.066823 -0.001159
0.000076000 0.066764 -0.00117
0.000077000 0.066762 -0.001147
0.000078000 0.066856 -0.001233
0.000079000 0.066728 -0.001219
0.000080000 0.066728 -0.001129
0.000081000 0.06671 -0.001163
0.000082000 0.066669 -0.001174
0.000083000 0.066731 -0.001299
0.000084000 0.066709 -0.001162
0.000085000 0.066641 -0.001219
0.000086000 0.06669 -0.001173
0.000087000 0.066701 -0.001126
0.000088000 0.066678 -0.001182
0.000089000 0.066687 -0.001279
0.000090000 0.066701 -0.001228
0.000091000 0.06667 -0.001235
0.000092000 0.066723 -0.001166
0.000093000 0.066657 -0.001303
0.000094000 0.066652 -0.001231
0.000095000 0.066609 -0.001331
0.000096000 0.066576 -0.001317
0.000097000 0.066666 -0.001266
0.000098000 0.066734 -0.001278
0.000099000 0.066577 -0.001262
0.000100000 0.066625 -0.001286
0.000110000 0.066568 -0.001404
0.000120000 0.066637 -0.001412
0.000130000 0.06673 -0.001494
0.000140000 0.066536 -0.001544
0.000150000 0.066508 -0.001593
0.000160000 0.066547 -0.0017
0.000170000 0.066454 -0.001702
0.000180000 0.066439 -0.0018
0.000190000 0.066471 -0.001896
0.000200000 0.066386 -0.001819
0.000210000 0.066393 -0.002014
0.000220000 0.066237 -0.00199
0.000230000 0.066264 -0.002126
0.000240000 0.066294 -0.002178
0.000250000 0.06622 -0.002352
0.000260000 0.06609 -0.002451
0.000270000 0.06614 -0.002395
0.000280000 0.065944 -0.002439
0.000290000 0.065939 -0.002548
0.000300000 0.065814 -0.002631
0.000310000 0.065875 -0.002633
0.000320000 0.065843 -0.00272
0.000330000 0.065655 -0.002781
0.000340000 0.065643 -0.002841
0.000350000 0.065607 -0.002813
0.000360000 0.065586 -0.002976
0.000370000 0.065587 -0.002988
0.000380000 0.065563 -0.003124
0.000390000 0.065376 -0.003111
0.000400000 0.065357 -0.00323
0.000410000 0.065402 -0.003214
0.000420000 0.065393 -0.003277
0.000430000 0.065174 -0.003331
0.000440000 0.065258 -0.003355
0.000450000 0.065141 -0.003342
0.000460000 0.065021 -0.003464
0.000470000 0.064964 -0.00351
0.000480000 0.06491 -0.003552
0.000490000 0.064868 -0.0036
0.000500000 0.064909 -0.003637
0.000510000 0.064838 -0.003654
0.000520000 0.064649 -0.003593
0.000530000 0.06467 -0.003797
0.000540000 0.064536 -0.003695
0.000550000 0.06457 -0.003697
0.000560000 0.064552 -0.003789
0.000570000 0.064401 -0.003756
0.000580000 0.064356 -0.003886
0.000590000 0.064452 -0.003881
0.000600000 0.064245 -0.003964
0.000610000 0.064292 -0.00395
0.000620000 0.064242 -0.003982
0.000630000 0.064207 -0.003932
0.000640000 0.064056 -0.003979
0.000650000 0.064082 -0.004054
0.000660000 0.063991 -0.004087
0.000670000 0.063949 -0.004076
0.000680000 0.063849 -0.004111
0.000690000 0.06387 -0.004107
0.000700000 0.063867 -0.004149
0.000710000 0.063736 -0.004201
0.000720000 0.063636 -0.004124
0.000730000 0.063618 -0.0042
0.000740000 0.06364 -0.004274
0.000750000 0.063515 -0.004321
0.000760000 0.063468 -0.004285
0.000770000 0.063405 -0.004221
0.000780000 0.06345 -0.004353
0.000790000 0.063347 -0.004304
0.000800000 0.063345 -0.004249
0.000810000 0.063294 -0.004315
0.000820000 0.063285 -0.004353
0.000830000 0.063197 -0.004418
0.000840000 0.063159 -0.004376
0.000850000 0.06311 -0.004389
0.000860000 0.063131 -0.004371
0.000870000 0.063019 -0.004331
0.000880000 0.062873 -0.004309
0.000890000 0.062928 -0.004366
0.000900000 0.062874 -0.00448
0.000910000 0.062798 -0.004421
0.000920000 0.06276 -0.004409
0.000930000 0.062794 -0.004488
0.000940000 0.06277 -0.004487
0.000950000 0.06269 -0.004452
0.000960000 0.062675 -0.004519
0.000970000 0.062719 -0.004424
0.000980000 0.062551 -0.004498
0.000990000 0.062466 -0.00444
0.001000000 0.062481 -0.004475
0.001100000 0.062116 -0.004484
0.001200000 0.061757 -0.004474
0.001300000 0.061471 -0.004457
0.001400000 0.06123 -0.004482
0.001500000 0.060885 -0.004444
0.001600000 0.060614 -0.004463
0.001700000 0.060416 -0.004406
0.001800000 0.060218 -0.00433
0.001900000 0.060007 -0.004297
0.002000000 0.059925 -0.004191
0.002100000 0.059686 -0.004093
0.002200000 0.059626 -0.004055
0.002300000 0.059398 -0.004021
0.002400000 0.059326 -0.003875
0.002500000 0.059117 -0.003946
0.002600000 0.059046 -0.003798
0.002700000 0.058932 -0.003863
0.002800000 0.05881 -0.003741
0.002900000 0.058749 -0.003712
0.003000000 0.058572 -0.003722
0.003100000 0.058572 -0.003655
0.003200000 0.058489 -0.00355
0.003300000 0.058373 -0.003537
0.003400000 0.058435 -0.003496
0.003500000 0.058295 -0.003503
0.003600000 0.058219 -0.003396
0.003700000 0.058084 -0.003377
0.003800000 0.058075 -0.003314
0.003900000 0.057939 -0.003299
0.004000000 0.057938 -0.003227
0.004100000 0.05789 -0.003207
0.004200000 0.057884 -0.003156
0.004300000 0.057919 -0.003044
0.004400000 0.057773 -0.003111
0.004500000 0.057707 -0.00302
0.004600000 0.057705 -0.003
0.004700000 0.057678 -0.002938
0.004800000 0.057675 -0.002983
0.004900000 0.057625 -0.002887
0.005000000 0.057521 -0.002869
0.005100000 0.057458 -0.002899
0.005200000 0.057516 -0.002857
0.005300000 0.057408 -0.002735
0.005400000 0.057419 -0.002736
0.005500000 0.05748 -0.002742
0.005600000 0.057357 -0.002681
0.005700000 0.057315 -0.002682
0.005800000 0.057334 -0.00274
0.005900000 0.057256 -0.002664
0.006000000 0.057263 -0.002683
0.006100000 0.057205 -0.002584
0.006200000 0.057323 -0.00265
0.006300000 0.057223 -0.002555
0.006400000 0.057185 -0.002495
0.006500000 0.057176 -0.002486
0.006600000 0.057126 -0.002486
0.006700000 0.057167 -0.002445
0.006800000 0.057099 -0.002432
0.006900000 0.057085 -0.002439
0.007000000 0.05711 -0.002354
0.007100000 0.057031 -0.00234
0.007200000 0.057074 -0.002341
0.007300000 0.057064 -0.002324
0.007400000 0.057069 -0.002334
0.007500000 0.057055 -0.002329
0.007600000 0.056967 -0.002291
0.007700000 0.056963 -0.002296
0.007800000 0.056943 -0.00226
0.007900000 0.056977 -0.002243
0.008000000 0.05694 -0.002204
0.008100000 0.056949 -0.002196
0.008200000 0.056938 -0.002196
0.008300000 0.056933 -0.002155
0.008400000 0.056982 -0.002136
0.008500000 0.056894 -0.00211
0.008600000 0.056925 -0.002179
0.008700000 0.056905 -0.002136
0.008800000 0.056832 -0.00211
0.008900000 0.056847 -0.002145
0.009000000 0.056838 -0.002106
0.009100000 0.056869 -0.002058
0.009200000 0.056881 -0.002151
0.009300000 0.056866 -0.002063
0.009400000 0.056837 -0.002018
0.009500000 0.056821 -0.002045
0.009600000 0.056817 -0.001995
0.009700000 0.056781 -0.001988
0.009800000 0.056821 -0.001991
0.009900000 0.056828 -0.001978
0.010000000 0.056783 -0.001985
0.011000000 0.056753 -0.001878
0.012000000 0.056733 -0.001868
0.013000000 0.056726 -0.001838
0.014000000 0.056738 -0.001791
0.015000000 0.05665 -0.001793
0.016000000 0.056598 -0.001818
0.017000000 0.056564 -0.001801
0.018000000 0.056592 -0.00183
0.019000000 0.056474 -0.001805
0.020000000 0.05644 -0.001843
0.021000000 0.056412 -0.001886
0.022000000 0.056389 -0.00186
0.023000000 0.056344 -0.001819
0.024000000 0.05628 -0.001869
0.025000000 0.056268 -0.001835
0.026000000 0.056224 -0.001851
0.027000000 0.056229 -0.001823
0.028000000 0.056188 -0.001864
0.029000000 0.056156 -0.001886
0.030000000 0.056147 -0.001919
0.031000000 0.05613 -0.001898
0.032000000 0.056126 -0.001939
0.033000000 0.056068 -0.001934
0.034000000 0.056075 -0.001906
0.035000000 0.056051 -0.001928
0.036000000 0.056066 -0.001989
0.037000000 0.056017 -0.002008
0.038000000 0.055993 -0.002008
0.039000000 0.055978 -0.001997
0.040000000 0.055927 -0.001939
0.041000000 0.055999 -0.002001
0.042000000 0.055958 -0.002013
0.043000000 0.055947 -0.002032
0.044000000 0.055922 -0.002037
0.045000000 0.055891 -0.002046
0.046000000 0.055902 -0.00203
0.047000000 0.055877 -0.002063
0.048000000 0.055855 -0.002049
0.049000000 0.055879 -0.002065
0.050000000 0.055865 -0.002061
0.051000000 0.055827 -0.002108
0.052000000 0.055829 -0.002096
0.053000000 0.055822 -0.002111
0.054000000 0.05582 -0.002101
0.055000000 0.055776 -0.002149
0.056000000 0.055777 -0.002144
0.057000000 0.055773 -0.002148
0.058000000 0.055775 -0.002185
0.059000000 0.05578 -0.002164
0.060000000 0.055756 -0.002182
0.061000000 0.055698 -0.002237
0.062000000 0.05574 -0.002229
0.063000000 0.055737 -0.002253
0.064000000 0.055699 -0.002214
0.065000000 0.05569 -0.002263
0.066000000 0.055689 -0.002224
0.067000000 0.05568 -0.002266
0.068000000 0.05567 -0.002267
0.069000000 0.055653 -0.002246
0.070000000 0.055699 -0.002247
0.071000000 0.055655 -0.002299
0.072000000 0.055632 -0.002258
0.073000000 0.055643 -0.002317
0.074000000 0.055664 -0.002305
0.075000000 0.055637 -0.002243
0.076000000 0.055661 -0.002318
0.077000000 0.055651 -0.002327
0.078000000 0.0556 -0.002324
0.079000000 0.055613 -0.002333
0.080000000 0.055617 -0.00234
0.081000000 0.055602 -0.002318
0.082000000 0.055576 -0.002357
0.083000000 0.055601 -0.002368
0.084000000 0.055649 -0.002343
0.085000000 0.055588 -0.002341
0.086000000 0.05561 -0.002349
0.087000000 0.055612 -0.002375
0.088000000 0.055615 -0.00238
0.089000000 0.055575 -0.002394
0.090000000 0.055581 -0.002387
0.091000000 0.055611 -0.00239
0.092000000 0.055566 -0.002373
0.093000000 0.055606 -0.002415
0.094000000 0.055583 -0.002414
0.095000000 0.055662 -0.002449
0.096000000 0.055632 -0.002419
0.097000000 0.055606 -0.002443
0.098000000 0.055591 -0.002439
0.099000000 0.055628 -0.002429
0.100000000 0.055605 -0.002454
0.110000000 0.055623 -0.002457
0.120000000 0.055657 -0.002518
0.130000000 0.055695 -0.002537
0.140000000 0.055766 -0.002604
0.150000000 0.055877 -0.002635
0.160000000 0.05586 -0.002685
0.170000000 0.056056 -0.00286
0.180000000 0.056045 -0.00287
0.190000000 0.056178 -0.002971
0.200000000 0.056281 -0.00313
0.210000000 0.056292 -0.003224
0.220000000 0.056472 -0.003366
0.230000000 0.056606 -0.00352
0.240000000 0.056704 -0.003718
0.250000000 0.056768 -0.003814
0.260000000 0.056853 -0.004108
0.270000000 0.056954 -0.004281
0.280000000 0.057022 -0.004492
0.290000000 0.057165 -0.004663
0.300000000 0.057212 -0.004842
0.310000000 0.057271 -0.005073
0.320000000 0.057397 -0.005364
0.330000000 0.057487 -0.005609
0.340000000 0.057582 -0.005901
0.350000000 0.057663 -0.006212
0.360000000 0.057764 -0.00651
0.370000000 0.057884 -0.00683
0.380000000 0.057939 -0.007123
0.390000000 0.058053 -0.00747
0.400000000 0.058133 -0.007776
0.410000000 0.058153 -0.008114
0.420000000 0.058254 -0.008459
0.430000000 0.058329 -0.008929
0.440000000 0.058411 -0.009383
0.450000000 0.058403 -0.009787
0.460000000 0.05838 -0.010167
0.470000000 0.058513 -0.010642
0.480000000 0.058552 -0.011052
0.490000000 0.058593 -0.011541
0.500000000 0.0587 -0.011992
0.510000000 0.058724 -0.012496
0.520000000 0.058828 -0.012887
0.530000000 0.058931 -0.013398
0.540000000 0.059012 -0.013868
0.550000000 0.058989 -0.014272
0.560000000 0.059073 -0.014752
0.570000000 0.05913 -0.01521
0.580000000 0.059174 -0.015615
0.590000000 0.059188 -0.016044
0.600000000 0.059207 -0.016445
0.610000000 0.059222 -0.01683
0.620000000 0.059222 -0.017228
0.630000000 0.059134 -0.017635
0.640000000 0.059091 -0.018054
0.650000000 0.059025 -0.018411
0.660000000 0.058832 -0.01878
0.670000000 0.058712 -0.019205
0.680000000 0.058525 -0.019577
0.690000000 0.058287 -0.019976
0.700000000 0.058069 -0.020397
0.710000000 0.057821 -0.020804
0.720000000 0.057502 -0.02122
0.730000000 0.057238 -0.021696
0.740000000 0.056925 -0.022139
0.750000000 0.056606 -0.022608
0.760000000 0.056224 -0.023105
0.770000000 0.055899 -0.023656
0.780000000 0.055501 -0.024178
0.790000000 0.055159 -0.024671
0.800000000 0.05479 -0.025236
0.810000000 0.054445 -0.025802
0.820000000 0.054115 -0.026374
0.830000000 0.053759 -0.026948
0.840000000 0.05338 -0.027413
0.850000000 0.053057 -0.028022
0.860000000 0.052726 -0.028528
0.870000000 0.052313 -0.028999
0.880000000 0.051975 -0.029517
0.890000000 0.051605 -0.029984
0.900000000 0.051248 -0.030448
0.910000000 0.050889 -0.030949
0.920000000 0.050514 -0.03138
0.930000000 0.0501 -0.031817
0.940000000 0.049707 -0.032215
0.950000000 0.049298 -0.032574
0.960000000 0.048839 -0.032903
0.970000000 0.048401 -0.033303
0.980000000 0.047941 -0.033614
0.990000000 0.04747 -0.033871
1.000000000 0.046899 -0.034249
1.010000000 0.046438 -0.034519
1.020000000 0.045896 -0.034793
1.030000000 0.04531 -0.035077
1.040000000 0.044786 -0.035327
1.050000000 0.044217 -0.035573
1.060000000 0.043635 -0.035801
1.070000000 0.043059 -0.036061
1.080000000 0.042468 -0.036269
1.090000000 0.041879 -0.036505
1.100000000 0.041201 -0.036713
1.110000000 0.040609 -0.036862
1.120000000 0.039926 -0.037036
1.130000000 0.039245 -0.037149
1.140000000 0.038605 -0.03729
1.150000000 0.038005 -0.037429
1.160000000 0.037251 -0.037506
1.170000000 0.036519 -0.037623
1.180000000 0.035832 -0.037737
1.190000000 0.035125 -0.037858
1.200000000 0.034364 -0.03791
1.210000000 0.033611 -0.037931
1.220000000 0.032881 -0.037992
1.230000000 0.03217 -0.038027
1.240000000 0.031393 -0.038088
1.250000000 0.030693 -0.038144
1.260000000 0.030004 -0.038208
1.270000000 0.02931 -0.038237
1.280000000 0.028565 -0.038283
1.290000000 0.027907 -0.038314
1.300000000 0.027241 -0.038337
1.310000000 0.026602 -0.038391
1.320000000 0.02596 -0.038402
1.330000000 0.02538 -0.038331
1.340000000 0.024862 -0.038294
1.350000000 0.024272 -0.038264
1.360000000 0.023733 -0.038161
1.370000000 0.023255 -0.037975
1.380000000 0.022789 -0.037865
1.390000000 0.022329 -0.037662
1.400000000 0.021917 -0.037424
1.410000000 0.021441 -0.037172
1.420000000 0.021059 -0.036834
1.430000000 0.020609 -0.036483
1.440000000 0.020224 -0.036099
1.450000000 0.019763 -0.035677
1.460000000 0.019353 -0.035218
1.470000000 0.01894 -0.034722
1.480000000 0.018511 -0.03424
1.490000000 0.018066 -0.033726
1.500000000 0.017591 -0.033134
1.510000000 0.017162 -0.032598
1.520000000 0.016747 -0.03202
1.530000000 0.01627 -0.031491
1.540000000 0.015772 -0.030895
1.550000000 0.015382 -0.030278
1.560000000 0.014864 -0.029721
1.570000000 0.014466 -0.029132
1.580000000 0.014115 -0.028594
1.590000000 0.013673 -0.027993
1.600000000 0.013284 -0.02743
1.610000000 0.012959 -0.026911
1.620000000 0.012645 -0.026281
1.630000000 0.012373 -0.025715
1.640000000 0.012118 -0.025135
1.650000000 0.011857 -0.024542
1.660000000 0.011699 -0.023925
1.670000000 0.011556 -0.023273
1.680000000 0.011435 -0.022561
1.690000000 0.011323 -0.021916
1.700000000 0.01122 -0.021256
1.710000000 0.011164 -0.020518
1.720000000 0.011112 -0.01977
1.730000000 0.011037 -0.019073
1.740000000 0.011057 -0.018403
1.750000000 0.010931 -0.017647
1.760000000 0.010981 -0.016891
1.770000000 0.010963 -0.016093
1.780000000 0.010994 -0.015411
1.790000000 0.011001 -0.014723
1.800000000 0.011055 -0.013986
1.810000000 0.011062 -0.013246
1.820000000 0.011148 -0.012615
1.830000000 0.011258 -0.011936
1.840000000 0.011357 -0.011315
1.850000000 0.011487 -0.010654
1.860000000 0.011733 -0.010086
1.870000000 0.01198 -0.009496
1.880000000 0.012258 -0.00896
1.890000000 0.012542 -0.008397
1.900000000 0.012968 -0.007872
1.910000000 0.01337 -0.007327
1.920000000 0.013854 -0.006776
1.930000000 0.014334 -0.006338
1.940000000 0.014921 -0.005738
1.950000000 0.015538 -0.005237
1.960000000 0.016205 -0.004627
1.970000000 0.016927 -0.004079
1.980000000 0.017613 -0.00352
1.990000000 0.018354 -0.002916
2.000000000 0.019113 -0.002302
2.010000000 0.019889 -0.001704
2.020000000 0.020695 -0.001051
2.030000000 0.021522 -0.000409
2.040000000 0.022302 0.000207
2.050000000 0.023092 0.000848
2.060000000 0.023866 0.001459
2.070000000 0.024622 0.002092
2.080000000 0.025384 0.002716
2.090000000 0.026187 0.003288
2.100000000 0.026947 0.003868
2.110000000 0.027696 0.004342
2.120000000 0.028454 0.004813
2.130000000 0.029176 0.00525
2.140000000 0.02991 0.005663
2.150000000 0.030708 0.005993
2.160000000 0.031464 0.006296
2.170000000 0.032299 0.006576
2.180000000 0.03311 0.006707
2.190000000 0.03397 0.006921
2.200000000 0.034785 0.007086
2.210000000 0.035726 0.007084
2.220000000 0.036609 0.007127
2.230000000 0.037526 0.007144
2.240000000 0.038505 0.007064
2.250000000 0.039531 0.007023
2.260000000 0.040628 0.006953
2.270000000 0.041622 0.006802
2.280000000 0.042686 0.006713
2.290000000 0.043743 0.00659
2.300000000 0.044806 0.006392
2.310000000 0.045954 0.006177
2.320000000 0.047029 0.005948
2.330000000 0.048198 0.00576
2.340000000 0.04927 0.005474
2.350000000 0.050339 0.00522
2.360000000 0.051492 0.00487
2.370000000 0.052506 0.00457
2.380000000 0.053664 0.004257
2.390000000 0.054686 0.003836
2.400000000 0.055801 0.003414
2.410000000 0.056834 0.002998
2.420000000 0.057836 0.002539
2.430000000 0.058809 0.002008
2.440000000 0.059838 0.001439
2.450000000 0.060784 0.000894
2.460000000 0.061784 0.000201
2.470000000 0.062676 -0.000383
2.480000000 0.063565 -0.001108
2.490000000 0.06451 -0.001881
2.500000000 0.065353 -0.00269
2.510000000 0.066179 -0.003559
2.520000000 0.067048 -0.004409
2.530000000 0.067863 -0.005334
2.540000000 0.068692 -0.006272
2.550000000 0.069381 -0.007221
2.560000000 0.070124 -0.008235
2.570000000 0.070816 -0.009259
2.580000000 0.071472 -0.010405
2.590000000 0.072125 -0.011509
2.600000000 0.072746 -0.012677
2.610000000 0.073324 -0.013887
2.620000000 0.073973 -0.015132
2.630000000 0.074526 -0.016361
2.640000000 0.075165 -0.017654
2.650000000 0.07576 -0.019029
2.660000000 0.07629 -0.0204
2.670000000 0.076847 -0.021644
2.680000000 0.077355 -0.022987
2.690000000 0.077891 -0.024231
2.700000000 0.078392 -0.025397
2.710000000 0.078931 -0.026509
2.720000000 0.079716 -0.027487
2.730000000 0.080561 -0.028507
2.740000000 0.081645 -0.029517
2.750000000 0.082858 -0.030825
2.760000000 0.084101 -0.032493
2.770000000 0.08516 -0.034334
2.780000000 0.08592 -0.036242
2.790000000 0.086523 -0.038286
2.800000000 0.08697 -0.04024
2.810000000 0.087248 -0.042095
2.820000000 0.087476 -0.043954
2.830000000 0.087598 -0.045786
2.840000000 0.087576 -0.047521
2.850000000 0.087452 -0.049298
2.860000000 0.087352 -0.051033
2.870000000 0.087123 -0.052824
2.880000000 0.086781 -0.054531
2.890000000 0.086401 -0.05635
2.900000000 0.085889 -0.058134
2.910000000 0.085443 -0.059957
2.920000000 0.084916 -0.061815
2.930000000 0.084309 -0.063652
2.940000000 0.083683 -0.06561
2.950000000 0.083019 -0.067505
2.960000000 0.082366 -0.069529
2.970000000 0.081638 -0.071477
2.980000000 0.080903 -0.073518
2.990000000 0.080177 -0.075564
3.000000000 0.079459 -0.077503
3.010000000 0.07864 -0.079543
3.020000000 0.07785 -0.081538
3.030000000 0.077053 -0.083566
3.040000000 0.076307 -0.085501
3.050000000 0.075415 -0.087331
3.060000000 0.074528 -0.089296
3.070000000 0.073658 -0.091059
3.080000000 0.072677 -0.092856
3.090000000 0.071674 -0.094625
3.100000000 0.07066 -0.096287
3.110000000 0.069577 -0.097909
3.120000000 0.068457 -0.099556
3.130000000 0.067219 -0.101155
3.140000000 0.065942 -0.102733
3.150000000 0.064512 -0.104245
3.160000000 0.063093 -0.105802
3.170000000 0.061539 -0.107249
3.180000000 0.059952 -0.108824
3.190000000 0.058267 -0.110311
3.200000000 0.056569 -0.111808
3.210000000 0.054736 -0.113302
3.220000000 0.052908 -0.114843
3.230000000 0.051039 -0.116311
3.240000000 0.049101 -0.117775
3.250000000 0.047215 -0.119254
3.260000000 0.045249 -0.120717
3.270000000 0.043308 -0.122136
3.280000000 0.041375 -0.12355
3.290000000 0.039374 -0.124934
3.300000000 0.037371 -0.126199
3.310000000 0.035453 -0.127475
3.320000000 0.033364 -0.128663
3.330000000 0.031332 -0.129816
3.340000000 0.029307 -0.130884
3.350000000 0.027301 -0.131895
3.360000000 0.025199 -0.132785
3.370000000 0.023083 -0.13364
3.380000000 0.020928 -0.134413
3.390000000 0.018618 -0.135102
3.400000000 0.016384 -0.13573
3.410000000 0.014031 -0.136295
3.420000000 0.01167 -0.136767
3.430000000 0.009219 -0.13725
3.440000000 0.00669 -0.137636
3.450000000 0.004177 -0.138044
3.460000000 0.001491 -0.138374
3.470000000 -0.001102 -0.138679
3.480000000 -0.003866 -0.138992
3.490000000 -0.006525 -0.139229
3.500000000 -0.009205 -0.139515
3.510000000 -0.01197 -0.139707
3.520000000 -0.01473 -0.13991
3.530000000 -0.017516 -0.14009
3.540000000 -0.020224 -0.140248
3.550000000 -0.022904 -0.140372
3.560000000 -0.025535 -0.140436
3.570000000 -0.028148 -0.140526
3.580000000 -0.030729 -0.140478
3.590000000 -0.03332 -0.140362
3.600000000 -0.035779 -0.140182
3.610000000 -0.03828 -0.13984
3.620000000 -0.0407 -0.139513
3.630000000 -0.043167 -0.139053
3.640000000 -0.045589 -0.138499
3.650000000 -0.047943 -0.137832
3.660000000 -0.050373 -0.137093
3.670000000 -0.052705 -0.136255
3.680000000 -0.055068 -0.135222
3.690000000 -0.057503 -0.134167
3.700000000 -0.059913 -0.13296
3.710000000 -0.062312 -0.131693
3.720000000 -0.064731 -0.130382
3.730000000 -0.067176 -0.128953
3.740000000 -0.069633 -0.127468
3.750000000 -0.072171 -0.125951
3.760000000 -0.074611 -0.124359
3.770000000 -0.077233 -0.122659
3.780000000 -0.079724 -0.120994
3.790000000 -0.082256 -0.119337
3.800000000 -0.084744 -0.117669
3.810000000 -0.087206 -0.115905
3.820000000 -0.089647 -0.114174
3.830000000 -0.092026 -0.112444
3.840000000 -0.094315 -0.110631
3.850000000 -0.096551 -0.108718
3.860000000 -0.098763 -0.106845
3.870000000 -0.100861 -0.104919
3.880000000 -0.10296 -0.102903
3.890000000 -0.104936 -0.100871
3.900000000 -0.106868 -0.098721
3.910000000 -0.108735 -0.096495
3.920000000 -0.110568 -0.094174
3.930000000 -0.112322 -0.091782
3.940000000 -0.11409 -0.08936
3.950000000 -0.115689 -0.086808
3.960000000 -0.117299 -0.084219
3.970000000 -0.11888 -0.081501
3.980000000 -0.120448 -0.078808
3.990000000 -0.121978 -0.075904
4.000000000 -0.123523 -0.073021
4.010000000 -0.124986 -0.070109
4.020000000 -0.126427 -0.067173
4.030000000 -0.127906 -0.064215
4.040000000 -0.129387 -0.061248
4.050000000 -0.130755 -0.058314
4.060000000 -0.132118 -0.055342
4.070000000 -0.133468 -0.052374
4.080000000 -0.134648 -0.04955
4.090000000 -0.135853 -0.046754
4.100000000 -0.136913 -0.043885
4.110000000 -0.137844 -0.041044
4.120000000 -0.138651 -0.038191
4.130000000 -0.139422 -0.035328
4.140000000 -0.140011 -0.032494
4.150000000 -0.140501 -0.029553
4.160000000 -0.140813 -0.026632
4.170000000 -0.141068 -0.02364
4.180000000 -0.141245 -0.020658
4.190000000 -0.141254 -0.017562
4.200000000 -0.141203 -0.014419
4.210000000 -0.141054 -0.011298
4.220000000 -0.140829 -0.008055
4.230000000 -0.140471 -0.004691
4.240000000 -0.14009 -0.001366
4.250000000 -0.139665 0.002062
4.260000000 -0.139189 0.005499
4.270000000 -0.138681 0.009067
4.280000000 -0.13818 0.012581
4.290000000 -0.137669 0.016133
4.300000000 -0.137125 0.019712
4.310000000 -0.136625 0.023232
4.320000000 -0.136086 0.026724
4.330000000 -0.135571 0.030162
4.340000000 -0.135045 0.03352
4.350000000 -0.13445 0.036803
4.360000000 -0.133834 0.040026
4.370000000 -0.133126 0.04308
4.380000000 -0.132346 0.046095
4.390000000 -0.13143 0.049031
4.400000000 -0.130469 0.051909
4.410000000 -0.129418 0.054613
4.420000000 -0.128212 0.057328
4.430000000 -0.126923 0.059922
4.440000000 -0.125488 0.06246
4.450000000 -0.123996 0.065007
4.460000000 -0.122342 0.067388
4.470000000 -0.120493 0.069816
4.480000000 -0.118626 0.07214
4.490000000 -0.116595 0.074462
4.500000000 -0.114427 0.07676
4.510000000 -0.11212 0.079091
4.520000000 -0.109712 0.081393
4.530000000 -0.107285 0.083728
4.540000000 -0.104672 0.086051
4.550000000 -0.102054 0.088392
4.560000000 -0.09939 0.090745
4.570000000 -0.096741 0.093119
4.580000000 -0.094008 0.095422
4.590000000 -0.091282 0.097776
4.600000000 -0.088544 0.099962
4.610000000 -0.085752 0.102191
4.620000000 -0.083011 0.104306
4.630000000 -0.080206 0.106411
4.640000000 -0.077457 0.108409
4.650000000 -0.074665 0.110354
4.660000000 -0.071859 0.112141
4.670000000 -0.069015 0.113857
4.680000000 -0.066245 0.115463
4.690000000 -0.063381 0.117015
4.700000000 -0.060509 0.118427
4.710000000 -0.057616 0.119721
4.720000000 -0.054672 0.120894
4.730000000 -0.051718 0.122018
4.740000000 -0.048703 0.12294
4.750000000 -0.045683 0.12381
4.760000000 -0.042579 0.124494
4.770000000 -0.039422 0.125168
4.780000000 -0.036181 0.125708
4.790000000 -0.03293 0.126162
4.800000000 -0.029604 0.126491
4.810000000 -0.026282 0.126818
4.820000000 -0.022821 0.127002
4.830000000 -0.019393 0.127094
4.840000000 -0.015909 0.127166
4.850000000 -0.012369 0.127145
4.860000000 -0.008901 0.127045
4.870000000 -0.00537 0.126953
4.880000000 -0.00178 0.126715
4.890000000 0.00172 0.126425
4.900000000 0.005264 0.126092
4.910000000 0.008804 0.125713
4.920000000 0.012365 0.125226
4.930000000 0.015808 0.124698
4.940000000 0.019292 0.124024
4.950000000 0.02273 0.12336
4.960000000 0.026104 0.12253
4.970000000 0.029441 0.12164
4.980000000 0.032782 0.120738
4.990000000 0.036063 0.119655
5.000000000 0.039282 0.118525
5.010000000 0.042494 0.11725
5.020000000 0.045647 0.115947
5.030000000 0.04877 0.11455
5.040000000 0.051885 0.113066
5.050000000 0.054923 0.111476
5.060000000 0.057936 0.109839
5.070000000 0.060898 0.108054
5.080000000 0.063843 0.10628
5.090000000 0.066743 0.104387
5.100000000 0.069619 0.102359
5.110000000 0.072434 0.100295
5.120000000 0.075235 0.098161
5.130000000 0.077973 0.095917
5.140000000 0.080649 0.093549
5.150000000 0.083246 0.091152
5.160000000 0.085855 0.088681
5.170000000 0.088416 0.086116
5.180000000 0.09094 0.083489
5.190000000 0.09336 0.080716
5.200000000 0.095735 0.077987
5.210000000 0.097941 0.07512
5.220000000 0.100215 0.072207
5.230000000 0.102379 0.069204
5.240000000 0.104506 0.066124
5.250000000 0.106536 0.063007
5.260000000 0.108528 0.059798
5.270000000 0.110434 0.056554
5.280000000 0.11233 0.053326
5.290000000 0.114097 0.049988
5.300000000 0.115816 0.046659
5.310000000 0.117491 0.043274
5.320000000 0.119034 0.039842
5.330000000 0.1205 0.036344
5.340000000 0.121854 0.032866
5.350000000 0.12307 0.029342
5.360000000 0.124235 0.02575
5.370000000 0.125238 0.022134
5.380000000 0.126278 0.018431
5.390000000 0.127078 0.014689
5.400000000 0.127898 0.010869
5.410000000 0.128567 0.007014
5.420000000 0.129172 0.003129
5.430000000 0.129579 -0.000901
5.440000000 0.129946 -0.004878
5.450000000 0.130128 -0.009043
5.460000000 0.130214 -0.013193
5.470000000 0.129996 -0.017508
5.480000000 0.129642 -0.021895
5.490000000 0.128981 -0.026297
5.500000000 0.128025 -0.03077
5.510000000 0.126821 -0.035093
5.520000000 0.125318 -0.039325
5.530000000 0.123599 -0.04329
5.540000000 0.121733 -0.046882
5.550000000 0.11993 -0.050167
5.560000000 0.118364 -0.053196
5.570000000 0.116878 -0.056138
5.580000000 0.115572 -0.058926
5.590000000 0.114325 -0.06176
5.600000000 0.11318 -0.064609
5.610000000 0.112023 -0.067597
5.620000000 0.110757 -0.070559
5.630000000 0.109436 -0.073587
5.640000000 0.108036 -0.076582
5.650000000 0.106565 -0.079698
5.660000000 0.105023 -0.082715
5.670000000 0.103342 -0.08571
5.680000000 0.101565 -0.088668
5.690000000 0.099642 -0.091645
5.700000000 0.097652 -0.094559
5.710000000 0.095483 -0.097351
5.720000000 0.093242 -0.100148
5.730000000 0.090806 -0.102907
5.740000000 0.088337 -0.105511
5.750000000 0.085679 -0.108236
5.760000000 0.082931 -0.110762
5.770000000 0.07998 -0.113357
5.780000000 0.076963 -0.115862
5.790000000 0.073839 -0.118412
5.800000000 0.070688 -0.120839
5.810000000 0.067409 -0.123303
5.820000000 0.064035 -0.125626
5.830000000 0.060556 -0.127987
5.840000000 0.057116 -0.13024
5.850000000 0.053582 -0.132475
5.860000000 0.049892 -0.134582
5.870000000 0.046275 -0.136655
5.880000000 0.04249 -0.138684
5.890000000 0.038685 -0.140673
5.900000000 0.034856 -0.14255
5.910000000 0.031019 -0.144358
5.920000000 0.027185 -0.146037
5.930000000 0.023278 -0.147702
5.940000000 0.019399 -0.149232
5.950000000 0.015602 -0.15069
5.960000000 0.01179 -0.151965
5.970000000 0.007988 -0.15309
5.980000000 0.004144 -0.154094
5.990000000 0.000371 -0.154933
6.000000000 -0.003461 -0.155591
6.010000000 -0.007298 -0.156129
6.020000000 -0.011172 -0.156447
6.030000000 -0.015162 -0.15665
6.040000000 -0.019114 -0.156686
6.050000000 -0.023137 -0.156608
6.060000000 -0.02719 -0.156317
6.070000000 -0.031393 -0.155912
6.080000000 -0.035538 -0.15537
6.090000000 -0.039824 -0.154649
6.100000000 -0.044154 -0.15382
6.110000000 -0.048583 -0.152851
6.120000000 -0.053052 -0.151746
6.130000000 -0.057639 -0.150519
6.140000000 -0.06228 -0.14925
6.150000000 -0.066942 -0.147861
6.160000000 -0.071683 -0.146399
6.170000000 -0.076499 -0.144908
6.180000000 -0.081224 -0.143443
6.190000000 -0.085998 -0.14193
6.200000000 -0.090754 -0.140397
6.210000000 -0.095444 -0.13881
6.220000000 -0.100077 -0.137269
6.230000000 -0.104594 -0.135664
6.240000000 -0.108998 -0.134009
6.250000000 -0.113284 -0.13228
6.260000000 -0.117475 -0.130537
6.270000000 -0.121442 -0.128759
6.280000000 -0.125356 -0.126836
6.290000000 -0.129063 -0.124814
6.300000000 -0.132605 -0.122705
6.310000000 -0.135972 -0.120426
6.320000000 -0.139232 -0.118006
6.330000000 -0.142469 -0.115486
6.340000000 -0.145447 -0.112771
6.350000000 -0.148428 -0.109847
6.360000000 -0.151357 -0.106749
6.370000000 -0.154172 -0.103384
6.380000000 -0.157072 -0.099772
6.390000000 -0.159815 -0.096052
6.400000000 -0.16259 -0.092109
6.410000000 -0.165348 -0.087913
6.420000000 -0.168081 -0.083588
6.430000000 -0.170788 -0.079147
6.440000000 -0.17355 -0.074569
6.450000000 -0.176289 -0.069902
6.460000000 -0.179041 -0.065198
6.470000000 -0.181776 -0.060414
6.480000000 -0.184485 -0.05562
6.490000000 -0.187162 -0.050816
6.500000000 -0.189779 -0.046059
6.510000000 -0.192419 -0.041365
6.520000000 -0.19498 -0.036705
6.530000000 -0.197447 -0.032072
6.540000000 -0.1997 -0.027543
6.550000000 -0.201909 -0.023162
6.560000000 -0.203944 -0.018748
6.570000000 -0.205833 -0.014346
6.580000000 -0.207528 -0.010005
6.590000000 -0.209096 -0.005594
6.600000000 -0.210442 -0.001178
6.610000000 -0.21156 0.003245
6.620000000 -0.212523 0.007874
6.630000000 -0.21333 0.012416
6.640000000 -0.213847 0.017118
6.650000000 -0.214237 0.021893
6.660000000 -0.214421 0.026796
6.670000000 -0.214441 0.031787
6.680000000 -0.214305 0.036843
6.690000000 -0.213978 0.042018
6.700000000 -0.213568 0.047274
6.710000000 -0.212976 0.052572
6.720000000 -0.212308 0.057941
6.730000000 -0.21156 0.063379
6.740000000 -0.210713 0.068958
6.750000000 -0.209778 0.074486
6.760000000 -0.208797 0.080022
6.770000000 -0.207879 0.085507
6.780000000 -0.206772 0.090939
6.790000000 -0.205603 0.096389
6.800000000 -0.204365 0.101637
6.810000000 -0.203079 0.106869
6.820000000 -0.201599 0.1119
6.830000000 -0.199934 0.116906
6.840000000 -0.198105 0.121828
6.850000000 -0.196182 0.126663
6.860000000 -0.194007 0.131416
6.870000000 -0.191758 0.13612
6.880000000 -0.189328 0.140833
6.890000000 -0.186753 0.145459
6.900000000 -0.18408 0.150083
6.910000000 -0.1812 0.154634
6.920000000 -0.178233 0.159129
6.930000000 -0.175135 0.16358
6.940000000 -0.171905 0.167977
6.950000000 -0.168554 0.172303
6.960000000 -0.165051 0.176612
6.970000000 -0.161427 0.180827
6.980000000 -0.157732 0.184981
6.990000000 -0.153865 0.189157
7.000000000 -0.149932 0.193238
7.010000000 -0.145895 0.197269
7.020000000 -0.141807 0.201316
7.030000000 -0.137675 0.205295
7.040000000 -0.133533 0.209165
7.050000000 -0.129361 0.212922
7.060000000 -0.125104 0.216491
7.070000000 -0.120766 0.219899
7.080000000 -0.116286 0.223112
7.090000000 -0.111735 0.226155
7.100000000 -0.107061 0.229026
7.110000000 -0.10219 0.23177
7.120000000 -0.097243 0.234419
7.130000000 -0.092113 0.236953
7.140000000 -0.086915 0.239406
7.150000000 -0.081636 0.241798
7.160000000 -0.076207 0.244113
7.170000000 -0.070738 0.246301
7.180000000 -0.065253 0.248394
7.190000000 -0.059691 0.250419
7.200000000 -0.054045 0.252332
7.210000000 -0.048447 0.254099
7.220000000 -0.042768 0.255795
7.230000000 -0.037026 0.257342
7.240000000 -0.031279 0.258798
7.250000000 -0.025396 0.260122
7.260000000 -0.019531 0.261434
7.270000000 -0.013663 0.262648
7.280000000 -0.007703 0.263772
7.290000000 -0.001828 0.26472
7.300000000 0.004066 0.265681
7.310000000 0.00996 0.266378
7.320000000 0.015816 0.266909
7.330000000 0.021641 0.267272
7.340000000 0.027469 0.267442
7.350000000 0.033335 0.267319
7.360000000 0.039238 0.266997
7.370000000 0.045153 0.266496
7.380000000 0.051127 0.265802
7.390000000 0.057134 0.264911
7.400000000 0.063229 0.26391
7.410000000 0.069315 0.262759
7.420000000 0.075392 0.261531
7.430000000 0.081396 0.260183
7.440000000 0.087431 0.258722
7.450000000 0.093363 0.257189
7.460000000 0.099205 0.255592
7.470000000 0.105021 0.253944
7.480000000 0.1108 0.252123
7.490000000 0.116542 0.250257
7.500000000 0.122261 0.248314
7.510000000 0.127988 0.246269
7.520000000 0.133652 0.244187
7.530000000 0.139342 0.241979
7.540000000 0.144893 0.239625
7.550000000 0.150355 0.237327
7.560000000 0.155819 0.234817
7.570000000 0.161021 0.23222
7.580000000 0.16617 0.229377
7.590000000 0.171186 0.226527
7.600000000 0.17611 0.223318
7.610000000 0.180903 0.220068
7.620000000 0.18562 0.21654
7.630000000 0.190268 0.212827
7.640000000 0.194834 0.208963
7.650000000 0.199409 0.204916
7.660000000 0.203822 0.200655
7.670000000 0.208349 0.196332
7.680000000 0.212715 0.191852
7.690000000 0.217108 0.18729
7.700000000 0.221367 0.182659
7.710000000 0.225595 0.177881
7.720000000 0.229689 0.17302
7.730000000 0.23378 0.168056
7.740000000 0.237724 0.163041
7.750000000 0.241632 0.157913
7.760000000 0.245388 0.15266
7.770000000 0.249138 0.147422
7.780000000 0.252743 0.142117
7.790000000 0.256249 0.136749
7.800000000 0.259595 0.131382
7.810000000 0.26291 0.125966
7.820000000 0.266036 0.120504
7.830000000 0.268914 0.115087
7.840000000 0.271666 0.10961
7.850000000 0.274259 0.104068
7.860000000 0.276668 0.098436
7.870000000 0.278903 0.092808
7.880000000 0.280869 0.087022
7.890000000 0.282677 0.08121
7.900000000 0.284334 0.075334
7.910000000 0.285825 0.069371
7.920000000 0.287214 0.063318
7.930000000 0.288362 0.057255
7.940000000 0.289373 0.051095
7.950000000 0.29035 0.044921
7.960000000 0.291132 0.038744
7.970000000 0.291705 0.032465
7.980000000 0.292209 0.026126
7.990000000 0.292478 0.01985
8.000000000 0.292588 0.013494
8.010000000 0.29267 0.00709
8.020000000 0.292533 0.000609
8.030000000 0.292269 -0.005799
8.040000000 0.291848 -0.012371
8.050000000 0.291314 -0.018856
8.060000000 0.290614 -0.025305
8.070000000 0.28976 -0.031769
8.080000000 0.288797 -0.038274
8.090000000 0.287658 -0.044732
8.100000000 0.286371 -0.051154
8.110000000 0.284962 -0.05759
8.120000000 0.283396 -0.064046
8.130000000 0.28173 -0.070387
8.140000000 0.279893 -0.076793
8.150000000 0.27797 -0.083032
8.160000000 0.275974 -0.089269
8.170000000 0.273926 -0.095483
8.180000000 0.271787 -0.101592
8.190000000 0.269655 -0.107662
8.200000000 0.267493 -0.113744
8.210000000 0.265217 -0.119816
8.220000000 0.262867 -0.12609
8.230000000 0.260361 -0.132288
8.240000000 0.257584 -0.138516
8.250000000 0.254611 -0.144702
8.260000000 0.251244 -0.150798
8.270000000 0.24771 -0.156715
8.280000000 0.243945 -0.162412
8.290000000 0.240028 -0.167851
8.300000000 0.235933 -0.173113
8.310000000 0.231715 -0.178209
8.320000000 0.227241 -0.183087
8.330000000 0.222624 -0.187818
8.340000000 0.217809 -0.19244
8.350000000 0.212772 -0.196972
8.360000000 0.207618 -0.201381
8.370000000 0.202182 -0.205741
8.380000000 0.196659 -0.209955
8.390000000 0.190878 -0.214147
8.400000000 0.184974 -0.21831
8.410000000 0.178913 -0.222396
8.420000000 0.17276 -0.226435
8.430000000 0.166442 -0.23039
8.440000000 0.160144 -0.234236
8.450000000 0.153672 -0.238032
8.460000000 0.147132 -0.241659
8.470000000 0.140579 -0.245266
8.480000000 0.133911 -0.248746
8.490000000 0.1272 -0.252166
8.500000000 0.120511 -0.255571
