! LibreCAL 5mOUNstcbC0A set FACTORY P1_OPEN
# GHz S RI R 50
0.000009000 1.000073 -0.009909
0.000010000 0.999731 -0.009541
0.000011000 0.999241 -0.008897
0.000012000 0.998698 -0.008365
0.000013000 0.998408 -0.007842
0.000014000 0.99779 -0.007445
0.000015000 0.997797 -0.007092
0.000016000 0.997443 -0.006671
0.000017000 0.997458 -0.006519
0.000018000 0.99717 -0.006314
0.000019000 0.997176 -0.006065
0.000020000 0.996984 -0.00575
0.000021000 0.996968 -0.00571
0.000022000 0.996863 -0.005513
0.000023000 0.996702 -0.005263
0.000024000 0.996576 -0.005069
0.000025000 0.996654 -0.005269
0.000026000 0.996597 -0.005064
0.000027000 0.996622 -0.004886
0.000028000 0.996443 -0.004924
0.000029000 0.996412 -0.004464
0.000030000 0.996445 -0.004565
0.000031000 0.996472 -0.004402
0.000032000 0.99646 -0.004512
0.000033000 0.996468 -0.00425
0.000034000 0.996362 -0.004241
0.000035000 0.996462 -0.004306
0.000036000 0.996312 -0.004205
0.000037000 0.996239 -0.004201
0.000038000 0.996249 -0.004187
0.000039000 0.996364 -0.004117
0.000040000 0.996367 -0.004143
0.000041000 0.996191 -0.004068
0.000042000 0.996115 -0.004002
0.000043000 0.996164 -0.004
0.000044000 0.996188 -0.004062
0.000045000 0.996184 -0.004042
0.000046000 0.996154 -0.003899
0.000047000 0.996204 -0.003947
0.000048000 0.996118 -0.003955
0.000049000 0.996245 -0.003965
0.000050000 0.996029 -0.003918
0.000051000 0.996058 -0.003868
0.000052000 0.996125 -0.003877
0.000053000 0.996207 -0.003892
0.000054000 0.996177 -0.003922
0.000055000 0.996087 -0.004012
0.000056000 0.996042 -0.003967
0.000057000 0.996061 -0.003941
0.000058000 0.996168 -0.003949
0.000059000 0.996006 -0.003893
0.000060000 0.996084 -0.004028
0.000061000 0.996131 -0.003991
0.000062000 0.996028 -0.004036
0.000063000 0.996102 -0.003991
0.000064000 0.996343 -0.004144
0.000065000 0.996098 -0.004059
0.000066000 0.996127 -0.004089
0.000067000 0.996168 -0.00395
0.000068000 0.996058 -0.004101
0.000069000 0.996098 -0.004174
0.000070000 0.996062 -0.004147
0.000071000 0.996008 -0.004004
0.000072000 0.996083 -0.004234
0.000073000 0.996056 -0.00417
0.000074000 0.996003 -0.004357
0.000075000 0.996064 -0.004349
0.000076000 0.996066 -0.004334
0.000077000 0.99596 -0.004293
0.000078000 0.99587 -0.004385
0.000079000 0.995905 -0.004468
0.000080000 0.996056 -0.00453
0.000081000 0.995969 -0.004588
0.000082000 0.995995 -0.004593
0.000083000 0.995789 -0.004463
0.000084000 0.995886 -0.004521
0.000085000 0.995968 -0.004449
0.000086000 0.995877 -0.004562
0.000087000 0.995866 -0.004661
0.000088000 0.99593 -0.004599
0.000089000 0.99593 -0.004585
0.000090000 0.995789 -0.004669
0.000091000 0.995696 -0.004706
0.000092000 0.995901 -0.004796
0.000093000 0.995868 -0.004767
0.000094000 0.995774 -0.004877
0.000095000 0.995796 -0.004862
0.000096000 0.995726 -0.004955
0.000097000 0.995675 -0.005
0.000098000 0.995832 -0.004936
0.000099000 0.995782 -0.004898
0.000100000 0.995738 -0.00485
0.000110000 0.995581 -0.005369
0.000120000 0.995426 -0.005505
0.000130000 0.995583 -0.005887
0.000140000 0.995369 -0.006203
0.000150000 0.995224 -0.00656
0.000160000 0.995064 -0.006804
0.000170000 0.994754 -0.007029
0.000180000 0.99476 -0.007436
0.000190000 0.994626 -0.007804
0.000200000 0.994496 -0.008083
0.000210000 0.994443 -0.008448
0.000220000 0.994144 -0.008751
0.000230000 0.993864 -0.009039
0.000240000 0.993777 -0.0094
0.000250000 0.993617 -0.009642
0.000260000 0.993505 -0.009868
0.000270000 0.993331 -0.010273
0.000280000 0.993006 -0.010406
0.000290000 0.99279 -0.010768
0.000300000 0.992603 -0.011012
0.000310000 0.992404 -0.011257
0.000320000 0.99216 -0.011587
0.000330000 0.992037 -0.011893
0.000340000 0.991916 -0.012082
0.000350000 0.99162 -0.012343
0.000360000 0.991461 -0.012453
0.000370000 0.991096 -0.012841
0.000380000 0.990979 -0.012905
0.000390000 0.990752 -0.013207
0.000400000 0.990559 -0.013523
0.000410000 0.990419 -0.01379
0.000420000 0.990158 -0.013902
0.000430000 0.989765 -0.014079
0.000440000 0.989721 -0.014302
0.000450000 0.989427 -0.0146
0.000460000 0.989269 -0.014504
0.000470000 0.989034 -0.014856
0.000480000 0.988826 -0.014964
0.000490000 0.988528 -0.015151
0.000500000 0.988457 -0.015396
0.000510000 0.988082 -0.015566
0.000520000 0.988011 -0.015679
0.000530000 0.987769 -0.015862
0.000540000 0.987491 -0.015888
0.000550000 0.987474 -0.016121
0.000560000 0.987153 -0.016387
0.000570000 0.986873 -0.016327
0.000580000 0.986685 -0.016451
0.000590000 0.98645 -0.016731
0.000600000 0.986355 -0.016784
0.000610000 0.986007 -0.016909
0.000620000 0.985984 -0.017034
0.000630000 0.985657 -0.017118
0.000640000 0.98549 -0.01732
0.000650000 0.985392 -0.017368
0.000660000 0.985094 -0.01747
0.000670000 0.98484 -0.017507
0.000680000 0.984767 -0.017761
0.000690000 0.984497 -0.017796
0.000700000 0.984417 -0.017896
0.000710000 0.984081 -0.017989
0.000720000 0.984029 -0.01813
0.000730000 0.983715 -0.018188
0.000740000 0.983497 -0.018124
0.000750000 0.983276 -0.018238
0.000760000 0.983096 -0.018507
0.000770000 0.982966 -0.018531
0.000780000 0.982829 -0.01861
0.000790000 0.982595 -0.01863
0.000800000 0.982487 -0.018693
0.000810000 0.982203 -0.01874
0.000820000 0.982126 -0.018712
0.000830000 0.981824 -0.018899
0.000840000 0.981635 -0.018838
0.000850000 0.98158 -0.018979
0.000860000 0.98138 -0.019043
0.000870000 0.981197 -0.019082
0.000880000 0.981122 -0.019136
0.000890000 0.980753 -0.019158
0.000900000 0.980679 -0.019322
0.000910000 0.980504 -0.019308
0.000920000 0.980357 -0.019408
0.000930000 0.980236 -0.01943
0.000940000 0.979955 -0.019491
0.000950000 0.979882 -0.019522
0.000960000 0.979743 -0.019567
0.000970000 0.979474 -0.019649
0.000980000 0.979341 -0.019624
0.000990000 0.979341 -0.019671
0.001000000 0.97911 -0.019684
0.001100000 0.977655 -0.020165
0.001200000 0.97629 -0.020458
0.001300000 0.975061 -0.020561
0.001400000 0.97404 -0.020594
0.001500000 0.973023 -0.020727
0.001600000 0.972006 -0.02086
0.001700000 0.971255 -0.020901
0.001800000 0.970437 -0.020796
0.001900000 0.96964 -0.020869
0.002000000 0.969152 -0.020842
0.002100000 0.968451 -0.020886
0.002200000 0.967848 -0.020875
0.002300000 0.967255 -0.020922
0.002400000 0.966729 -0.020838
0.002500000 0.966542 -0.020996
0.002600000 0.965798 -0.020899
0.002700000 0.965418 -0.021007
0.002800000 0.965166 -0.020915
0.002900000 0.964784 -0.021223
0.003000000 0.964326 -0.021089
0.003100000 0.964053 -0.021187
0.003200000 0.963639 -0.021071
0.003300000 0.96345 -0.02127
0.003400000 0.963252 -0.021137
0.003500000 0.962799 -0.021263
0.003600000 0.96261 -0.02134
0.003700000 0.962354 -0.021427
0.003800000 0.961922 -0.02152
0.003900000 0.96192 -0.021635
0.004000000 0.961625 -0.021638
0.004100000 0.96155 -0.021885
0.004200000 0.961378 -0.021912
0.004300000 0.961123 -0.021773
0.004400000 0.960901 -0.022059
0.004500000 0.960798 -0.022154
0.004600000 0.960585 -0.022186
0.004700000 0.960493 -0.022297
0.004800000 0.960274 -0.022442
0.004900000 0.960284 -0.022424
0.005000000 0.959836 -0.022645
0.005100000 0.959856 -0.022686
0.005200000 0.959823 -0.022796
0.005300000 0.959739 -0.02294
0.005400000 0.959471 -0.02307
0.005500000 0.959311 -0.023289
0.005600000 0.959233 -0.023464
0.005700000 0.959106 -0.023493
0.005800000 0.959007 -0.023677
0.005900000 0.958956 -0.023681
0.006000000 0.958822 -0.023901
0.006100000 0.958722 -0.02405
0.006200000 0.958535 -0.024192
0.006300000 0.958553 -0.024306
0.006400000 0.95843 -0.024394
0.006500000 0.958383 -0.024623
0.006600000 0.958232 -0.02469
0.006700000 0.958189 -0.024894
0.006800000 0.958114 -0.024994
0.006900000 0.958085 -0.025159
0.007000000 0.957948 -0.025311
0.007100000 0.957901 -0.02549
0.007200000 0.957858 -0.025703
0.007300000 0.95778 -0.025838
0.007400000 0.957704 -0.025943
0.007500000 0.957599 -0.026069
0.007600000 0.957606 -0.026243
0.007700000 0.957493 -0.026474
0.007800000 0.957487 -0.026597
0.007900000 0.957436 -0.026812
0.008000000 0.957364 -0.026985
0.008100000 0.957215 -0.027119
0.008200000 0.957284 -0.027299
0.008300000 0.957242 -0.027506
0.008400000 0.957095 -0.027615
0.008500000 0.957027 -0.027801
0.008600000 0.957063 -0.027985
0.008700000 0.956977 -0.028184
0.008800000 0.956931 -0.028359
0.008900000 0.956861 -0.028592
0.009000000 0.956795 -0.028732
0.009100000 0.956735 -0.028899
0.009200000 0.956743 -0.029115
0.009300000 0.95673 -0.029322
0.009400000 0.956678 -0.029476
0.009500000 0.95663 -0.029637
0.009600000 0.956567 -0.029894
0.009700000 0.956529 -0.030014
0.009800000 0.956552 -0.030189
0.009900000 0.956438 -0.03042
0.010000000 0.956402 -0.030562
0.011000000 0.956041 -0.032603
0.012000000 0.955791 -0.034637
0.013000000 0.955516 -0.036706
0.014000000 0.95525 -0.038889
0.015000000 0.954975 -0.041092
0.016000000 0.954646 -0.043277
0.017000000 0.954376 -0.045446
0.018000000 0.95413 -0.047769
0.019000000 0.953723 -0.049996
0.020000000 0.95343 -0.052187
0.021000000 0.953123 -0.054409
0.022000000 0.952802 -0.056604
0.023000000 0.952517 -0.058817
0.024000000 0.952251 -0.061081
0.025000000 0.951905 -0.063255
0.026000000 0.951628 -0.065485
0.027000000 0.951388 -0.067688
0.028000000 0.951108 -0.06998
0.029000000 0.950799 -0.072218
0.030000000 0.950495 -0.074537
0.031000000 0.950168 -0.076736
0.032000000 0.949907 -0.078949
0.033000000 0.949482 -0.081299
0.034000000 0.949245 -0.083497
0.035000000 0.948916 -0.085776
0.036000000 0.948493 -0.088048
0.037000000 0.948189 -0.090246
0.038000000 0.947949 -0.092489
0.039000000 0.947537 -0.094723
0.040000000 0.947192 -0.096978
0.041000000 0.946827 -0.099216
0.042000000 0.946528 -0.10142
0.043000000 0.946122 -0.103691
0.044000000 0.945789 -0.105892
0.045000000 0.945367 -0.108129
0.046000000 0.945092 -0.110367
0.047000000 0.944691 -0.1126
0.048000000 0.944332 -0.114827
0.049000000 0.943915 -0.117044
0.050000000 0.943445 -0.119318
0.051000000 0.943069 -0.121537
0.052000000 0.942672 -0.123779
0.053000000 0.942286 -0.125989
0.054000000 0.941835 -0.128148
0.055000000 0.941435 -0.130434
0.056000000 0.941021 -0.132622
0.057000000 0.940639 -0.134807
0.058000000 0.940203 -0.13705
0.059000000 0.939711 -0.139268
0.060000000 0.939286 -0.141409
0.061000000 0.938855 -0.143698
0.062000000 0.938445 -0.145868
0.063000000 0.937942 -0.148088
0.064000000 0.937455 -0.150282
0.065000000 0.937011 -0.152448
0.066000000 0.936559 -0.154643
0.067000000 0.936074 -0.15683
0.068000000 0.935597 -0.158981
0.069000000 0.935155 -0.161232
0.070000000 0.934684 -0.163353
0.071000000 0.934182 -0.16556
0.072000000 0.933684 -0.16767
0.073000000 0.933125 -0.1699
0.074000000 0.93271 -0.172059
0.075000000 0.932133 -0.174217
0.076000000 0.9316 -0.176434
0.077000000 0.931127 -0.178584
0.078000000 0.930555 -0.180714
0.079000000 0.930042 -0.182942
0.080000000 0.929528 -0.185109
0.081000000 0.929023 -0.187196
0.082000000 0.928495 -0.189398
0.083000000 0.927938 -0.191616
0.084000000 0.927406 -0.193688
0.085000000 0.92684 -0.195886
0.086000000 0.92626 -0.19798
0.087000000 0.925697 -0.200146
0.088000000 0.92513 -0.202294
0.089000000 0.924604 -0.204474
0.090000000 0.92402 -0.20662
0.091000000 0.923455 -0.208745
0.092000000 0.922844 -0.210851
0.093000000 0.922266 -0.213034
0.094000000 0.921648 -0.215157
0.095000000 0.92107 -0.217244
0.096000000 0.920426 -0.219396
0.097000000 0.919878 -0.221557
0.098000000 0.919227 -0.223625
0.099000000 0.91867 -0.22582
0.100000000 0.918009 -0.227885
0.110000000 0.91159 -0.249031
0.120000000 0.904697 -0.26996
0.130000000 0.897347 -0.290652
0.140000000 0.889612 -0.311149
0.150000000 0.881428 -0.331445
0.160000000 0.872751 -0.351505
0.170000000 0.863741 -0.371299
0.180000000 0.854092 -0.390992
0.190000000 0.844125 -0.410332
0.200000000 0.833789 -0.429582
0.210000000 0.822848 -0.448521
0.220000000 0.811616 -0.467249
0.230000000 0.799998 -0.485692
0.240000000 0.787923 -0.503979
0.250000000 0.775588 -0.521869
0.260000000 0.762741 -0.539625
0.270000000 0.749573 -0.557032
0.280000000 0.735999 -0.574144
0.290000000 0.722003 -0.590899
0.300000000 0.7077 -0.607168
0.310000000 0.692876 -0.623163
0.320000000 0.677693 -0.638809
0.330000000 0.662115 -0.65417
0.340000000 0.646094 -0.669113
0.350000000 0.62976 -0.683758
0.360000000 0.612985 -0.698007
0.370000000 0.595957 -0.711857
0.380000000 0.578537 -0.725308
0.390000000 0.560839 -0.73843
0.400000000 0.54285 -0.750992
0.410000000 0.524454 -0.763178
0.420000000 0.505826 -0.774874
0.430000000 0.48688 -0.786035
0.440000000 0.467662 -0.796846
0.450000000 0.448058 -0.807191
0.460000000 0.428016 -0.817037
0.470000000 0.408122 -0.826433
0.480000000 0.387822 -0.835297
0.490000000 0.367279 -0.843855
0.500000000 0.346583 -0.85195
0.510000000 0.325722 -0.859643
0.520000000 0.304833 -0.866663
0.530000000 0.283701 -0.873359
0.540000000 0.26251 -0.879461
0.550000000 0.241055 -0.885096
0.560000000 0.219692 -0.890205
0.570000000 0.198051 -0.894625
0.580000000 0.176466 -0.898487
0.590000000 0.154655 -0.901884
0.600000000 0.132643 -0.90463
0.610000000 0.110585 -0.906822
0.620000000 0.088496 -0.908502
0.630000000 0.066243 -0.909729
0.640000000 0.043963 -0.91032
0.650000000 0.02153 -0.910497
0.660000000 -0.000958 -0.909999
0.670000000 -0.023394 -0.908972
0.680000000 -0.045737 -0.907334
0.690000000 -0.068169 -0.905135
0.700000000 -0.090583 -0.90238
0.710000000 -0.113031 -0.898799
0.720000000 -0.135362 -0.894875
0.730000000 -0.157721 -0.890299
0.740000000 -0.17999 -0.885246
0.750000000 -0.20221 -0.879479
0.760000000 -0.224374 -0.873387
0.770000000 -0.246387 -0.866763
0.780000000 -0.26819 -0.859701
0.790000000 -0.289775 -0.852079
0.800000000 -0.311228 -0.843926
0.810000000 -0.332262 -0.83526
0.820000000 -0.353044 -0.826087
0.830000000 -0.373546 -0.816316
0.840000000 -0.393836 -0.805863
0.850000000 -0.413673 -0.795089
0.860000000 -0.433286 -0.783682
0.870000000 -0.452727 -0.771638
0.880000000 -0.471771 -0.759243
0.890000000 -0.490499 -0.74631
0.900000000 -0.508868 -0.732983
0.910000000 -0.527029 -0.719202
0.920000000 -0.544702 -0.705002
0.930000000 -0.562134 -0.690172
0.940000000 -0.578957 -0.674992
0.950000000 -0.595509 -0.659341
0.960000000 -0.61159 -0.643149
0.970000000 -0.62727 -0.626592
0.980000000 -0.6426 -0.609461
0.990000000 -0.657435 -0.5919
1.000000000 -0.671927 -0.573994
1.010000000 -0.685972 -0.55571
1.020000000 -0.699693 -0.536969
1.030000000 -0.713033 -0.518063
1.040000000 -0.725787 -0.498746
1.050000000 -0.7381 -0.479104
1.060000000 -0.749917 -0.459265
1.070000000 -0.761145 -0.439043
1.080000000 -0.771849 -0.418537
1.090000000 -0.781912 -0.397795
1.100000000 -0.791498 -0.376712
1.110000000 -0.800415 -0.355452
1.120000000 -0.808793 -0.333958
1.130000000 -0.816605 -0.312134
1.140000000 -0.823924 -0.290228
1.150000000 -0.830511 -0.268118
1.160000000 -0.836643 -0.245775
1.170000000 -0.842284 -0.223377
1.180000000 -0.847238 -0.200922
1.190000000 -0.851641 -0.178271
1.200000000 -0.855339 -0.155666
1.210000000 -0.858562 -0.132906
1.220000000 -0.861102 -0.110163
1.230000000 -0.863 -0.087306
1.240000000 -0.864292 -0.064393
1.250000000 -0.864958 -0.04148
1.260000000 -0.865087 -0.018601
1.270000000 -0.864593 0.004296
1.280000000 -0.863485 0.02726
1.290000000 -0.861849 0.049971
1.300000000 -0.85957 0.072752
1.310000000 -0.856779 0.095415
1.320000000 -0.853342 0.117956
1.330000000 -0.849295 0.140442
1.340000000 -0.844568 0.162786
1.350000000 -0.839296 0.185004
1.360000000 -0.833402 0.20706
1.370000000 -0.826917 0.22902
1.380000000 -0.819815 0.250799
1.390000000 -0.812129 0.272413
1.400000000 -0.803894 0.293836
1.410000000 -0.795124 0.315053
1.420000000 -0.785706 0.336055
1.430000000 -0.775755 0.356801
1.440000000 -0.765264 0.377271
1.450000000 -0.75431 0.397533
1.460000000 -0.742749 0.417485
1.470000000 -0.730653 0.437084
1.480000000 -0.718141 0.456311
1.490000000 -0.705191 0.475304
1.500000000 -0.691719 0.493918
1.510000000 -0.677748 0.512035
1.520000000 -0.663384 0.529779
1.530000000 -0.648594 0.54717
1.540000000 -0.633397 0.564076
1.550000000 -0.617655 0.580504
1.560000000 -0.601691 0.596514
1.570000000 -0.585217 0.612037
1.580000000 -0.568395 0.627116
1.590000000 -0.551171 0.641657
1.600000000 -0.533608 0.655793
1.610000000 -0.515671 0.669347
1.620000000 -0.497423 0.682501
1.630000000 -0.478832 0.695128
1.640000000 -0.459947 0.707137
1.650000000 -0.44079 0.718723
1.660000000 -0.421318 0.729744
1.670000000 -0.401667 0.74026
1.680000000 -0.381723 0.750266
1.690000000 -0.361505 0.759643
1.700000000 -0.3411 0.768557
1.710000000 -0.320556 0.776908
1.720000000 -0.299772 0.784785
1.730000000 -0.278826 0.792106
1.740000000 -0.257747 0.798931
1.750000000 -0.236539 0.805194
1.760000000 -0.215316 0.811031
1.770000000 -0.194026 0.816302
1.780000000 -0.172612 0.820857
1.790000000 -0.151188 0.82505
1.800000000 -0.12972 0.828515
1.810000000 -0.108263 0.831438
1.820000000 -0.086694 0.833784
1.830000000 -0.065081 0.835516
1.840000000 -0.043456 0.836665
1.850000000 -0.021829 0.83721
1.860000000 -0.000117 0.83729
1.870000000 0.021601 0.836677
1.880000000 0.043248 0.835582
1.890000000 0.064808 0.833933
1.900000000 0.086408 0.831788
1.910000000 0.107765 0.829002
1.920000000 0.12916 0.825737
1.930000000 0.150406 0.821738
1.940000000 0.171473 0.817427
1.950000000 0.192479 0.812465
1.960000000 0.213365 0.806988
1.970000000 0.23404 0.800919
1.980000000 0.254584 0.794472
1.990000000 0.274932 0.787519
2.000000000 0.295127 0.780054
2.010000000 0.315109 0.772345
2.020000000 0.33483 0.764165
2.030000000 0.354212 0.755568
2.040000000 0.373328 0.746537
2.050000000 0.391986 0.737164
2.060000000 0.410369 0.72723
2.070000000 0.428295 0.716915
2.080000000 0.44596 0.706171
2.090000000 0.463292 0.694967
2.100000000 0.480249 0.683271
2.110000000 0.496903 0.671126
2.120000000 0.513196 0.658726
2.130000000 0.529096 0.645875
2.140000000 0.544689 0.63269
2.150000000 0.559999 0.619192
2.160000000 0.574838 0.60546
2.170000000 0.589299 0.59116
2.180000000 0.603522 0.576577
2.190000000 0.617181 0.561797
2.200000000 0.630468 0.546584
2.210000000 0.643375 0.530982
2.220000000 0.65596 0.515071
2.230000000 0.668143 0.49882
2.240000000 0.68005 0.482309
2.250000000 0.691566 0.465582
2.260000000 0.702723 0.448538
2.270000000 0.713547 0.431299
2.280000000 0.723945 0.413885
2.290000000 0.733939 0.396319
2.300000000 0.743414 0.37865
2.310000000 0.752547 0.360671
2.320000000 0.76103 0.342506
2.330000000 0.769151 0.324305
2.340000000 0.77665 0.305827
2.350000000 0.783708 0.287252
2.360000000 0.790346 0.26849
2.370000000 0.796371 0.249701
2.380000000 0.802043 0.230753
2.390000000 0.807195 0.211669
2.400000000 0.81199 0.192581
2.410000000 0.816327 0.173438
2.420000000 0.819995 0.154252
2.430000000 0.823355 0.135061
2.440000000 0.826213 0.115818
2.450000000 0.828579 0.096634
2.460000000 0.830467 0.07724
2.470000000 0.831856 0.057975
2.480000000 0.832793 0.038606
2.490000000 0.833214 0.01901
2.500000000 0.833179 -0.000439
2.510000000 0.832703 -0.02003
2.520000000 0.831968 -0.039601
2.530000000 0.830757 -0.059104
2.540000000 0.829054 -0.078663
2.550000000 0.826919 -0.098013
2.560000000 0.824256 -0.117388
2.570000000 0.821152 -0.136708
2.580000000 0.817478 -0.15593
2.590000000 0.813357 -0.175023
2.600000000 0.808628 -0.194027
2.610000000 0.803422 -0.212817
2.620000000 0.797715 -0.231481
2.630000000 0.791594 -0.249926
2.640000000 0.785056 -0.268269
2.650000000 0.778089 -0.286393
2.660000000 0.770586 -0.304266
2.670000000 0.762686 -0.321781
2.680000000 0.754342 -0.33909
2.690000000 0.745574 -0.355871
2.700000000 0.736324 -0.37204
2.710000000 0.726733 -0.38763
2.720000000 0.717121 -0.402434
2.730000000 0.707665 -0.416647
2.740000000 0.698692 -0.430494
2.750000000 0.690154 -0.444558
2.760000000 0.681658 -0.45908
2.770000000 0.672868 -0.47418
2.780000000 0.663456 -0.489585
2.790000000 0.653309 -0.505113
2.800000000 0.642548 -0.520377
2.810000000 0.631096 -0.535394
2.820000000 0.619185 -0.550118
2.830000000 0.606662 -0.564449
2.840000000 0.593726 -0.578432
2.850000000 0.580333 -0.591977
2.860000000 0.566618 -0.605199
2.870000000 0.552487 -0.617975
2.880000000 0.537995 -0.630421
2.890000000 0.523147 -0.642523
2.900000000 0.508026 -0.654253
2.910000000 0.492576 -0.665707
2.920000000 0.476922 -0.676701
2.930000000 0.460976 -0.687277
2.940000000 0.444741 -0.697556
2.950000000 0.428366 -0.707488
2.960000000 0.41183 -0.717087
2.970000000 0.395125 -0.726173
2.980000000 0.378146 -0.734832
2.990000000 0.361152 -0.743161
3.000000000 0.343977 -0.751119
3.010000000 0.326729 -0.758606
3.020000000 0.309246 -0.765633
3.030000000 0.291737 -0.772279
3.040000000 0.274138 -0.778431
3.050000000 0.256475 -0.784157
3.060000000 0.238707 -0.78945
3.070000000 0.220839 -0.79427
3.080000000 0.202956 -0.798663
3.090000000 0.184886 -0.802568
3.100000000 0.166826 -0.8061
3.110000000 0.148634 -0.809105
3.120000000 0.13047 -0.811745
3.130000000 0.11222 -0.813917
3.140000000 0.093865 -0.815746
3.150000000 0.075473 -0.817173
3.160000000 0.057096 -0.818196
3.170000000 0.038518 -0.818779
3.180000000 0.019989 -0.819008
3.190000000 0.00133 -0.818827
3.200000000 -0.017337 -0.818258
3.210000000 -0.035932 -0.817215
3.220000000 -0.054584 -0.815782
3.230000000 -0.073239 -0.813964
3.240000000 -0.091788 -0.811768
3.250000000 -0.110301 -0.809116
3.260000000 -0.128661 -0.806115
3.270000000 -0.146878 -0.802768
3.280000000 -0.164942 -0.798974
3.290000000 -0.182917 -0.794784
3.300000000 -0.200738 -0.790125
3.310000000 -0.21827 -0.785044
3.320000000 -0.235837 -0.779487
3.330000000 -0.253146 -0.773572
3.340000000 -0.270292 -0.767111
3.350000000 -0.287337 -0.760311
3.360000000 -0.304132 -0.753062
3.370000000 -0.320886 -0.745379
3.380000000 -0.337398 -0.737322
3.390000000 -0.353814 -0.728866
3.400000000 -0.370045 -0.719998
3.410000000 -0.386057 -0.710778
3.420000000 -0.401845 -0.701184
3.430000000 -0.417492 -0.691179
3.440000000 -0.432865 -0.680799
3.450000000 -0.447959 -0.670021
3.460000000 -0.462976 -0.659056
3.470000000 -0.477656 -0.647634
3.480000000 -0.492173 -0.63591
3.490000000 -0.506495 -0.623955
3.500000000 -0.520426 -0.611706
3.510000000 -0.53415 -0.599191
3.520000000 -0.547614 -0.586369
3.530000000 -0.560736 -0.57347
3.540000000 -0.57349 -0.560272
3.550000000 -0.585817 -0.546851
3.560000000 -0.597776 -0.533088
3.570000000 -0.609225 -0.519075
3.580000000 -0.620342 -0.504679
3.590000000 -0.631146 -0.490153
3.600000000 -0.641463 -0.475216
3.610000000 -0.651514 -0.460055
3.620000000 -0.661159 -0.444589
3.630000000 -0.670434 -0.428845
3.640000000 -0.679399 -0.41285
3.650000000 -0.687913 -0.396639
3.660000000 -0.696029 -0.380243
3.670000000 -0.703798 -0.363571
3.680000000 -0.711129 -0.346716
3.690000000 -0.718069 -0.329632
3.700000000 -0.724673 -0.312252
3.710000000 -0.730785 -0.29474
3.720000000 -0.736496 -0.276938
3.730000000 -0.741891 -0.259179
3.740000000 -0.746898 -0.241048
3.750000000 -0.751621 -0.222901
3.760000000 -0.756012 -0.204647
3.770000000 -0.760095 -0.186321
3.780000000 -0.763803 -0.168073
3.790000000 -0.767135 -0.149695
3.800000000 -0.770058 -0.131417
3.810000000 -0.77246 -0.113007
3.820000000 -0.774392 -0.094658
3.830000000 -0.775898 -0.076399
3.840000000 -0.77683 -0.057924
3.850000000 -0.777231 -0.03953
3.860000000 -0.777143 -0.021058
3.870000000 -0.77658 -0.00253
3.880000000 -0.775607 0.015973
3.890000000 -0.774078 0.034502
3.900000000 -0.772135 0.052938
3.910000000 -0.769734 0.071399
3.920000000 -0.766875 0.089803
3.930000000 -0.76351 0.10805
3.940000000 -0.75975 0.126229
3.950000000 -0.755357 0.144296
3.960000000 -0.750559 0.162258
3.970000000 -0.745261 0.180068
3.980000000 -0.739651 0.197777
3.990000000 -0.733609 0.215437
4.000000000 -0.727269 0.232982
4.010000000 -0.720559 0.250333
4.020000000 -0.713631 0.267508
4.030000000 -0.706336 0.284433
4.040000000 -0.698871 0.301319
4.050000000 -0.691069 0.317728
4.060000000 -0.682919 0.334027
4.070000000 -0.67444 0.350072
4.080000000 -0.665415 0.365745
4.090000000 -0.656242 0.381094
4.100000000 -0.646435 0.396295
4.110000000 -0.636275 0.411161
4.120000000 -0.62556 0.42584
4.130000000 -0.614504 0.440236
4.140000000 -0.603028 0.454438
4.150000000 -0.591014 0.46845
4.160000000 -0.578721 0.482141
4.170000000 -0.566035 0.495515
4.180000000 -0.552991 0.508569
4.190000000 -0.539604 0.521381
4.200000000 -0.525944 0.533754
4.210000000 -0.51186 0.54571
4.220000000 -0.497464 0.557424
4.230000000 -0.482723 0.568812
4.240000000 -0.467758 0.579832
4.250000000 -0.452509 0.590518
4.260000000 -0.437146 0.600937
4.270000000 -0.421565 0.611049
4.280000000 -0.406005 0.620767
4.290000000 -0.390277 0.630233
4.300000000 -0.374473 0.63926
4.310000000 -0.35866 0.647926
4.320000000 -0.342707 0.656165
4.330000000 -0.326648 0.663985
4.340000000 -0.310544 0.671391
4.350000000 -0.294324 0.678243
4.360000000 -0.277953 0.684769
4.370000000 -0.261494 0.69067
4.380000000 -0.244802 0.696136
4.390000000 -0.227938 0.701153
4.400000000 -0.211007 0.705705
4.410000000 -0.193881 0.709822
4.420000000 -0.176668 0.713514
4.430000000 -0.159257 0.716708
4.440000000 -0.141733 0.719515
4.450000000 -0.124132 0.72181
4.460000000 -0.106437 0.723624
4.470000000 -0.088547 0.725005
4.480000000 -0.070641 0.725963
4.490000000 -0.052579 0.726469
4.500000000 -0.034454 0.726503
4.510000000 -0.016287 0.726168
4.520000000 0.001972 0.725507
4.530000000 0.020215 0.724381
4.540000000 0.038478 0.722957
4.550000000 0.056639 0.721086
4.560000000 0.074674 0.718888
4.570000000 0.092721 0.716329
4.580000000 0.110561 0.713319
4.590000000 0.128313 0.709883
4.600000000 0.145965 0.70601
4.610000000 0.163408 0.701765
4.620000000 0.180657 0.697071
4.630000000 0.197822 0.691997
4.640000000 0.214646 0.68646
4.650000000 0.231427 0.680597
4.660000000 0.247823 0.674185
4.670000000 0.264121 0.667422
4.680000000 0.280127 0.660242
4.690000000 0.295937 0.652605
4.700000000 0.311519 0.644564
4.710000000 0.326931 0.636135
4.720000000 0.342046 0.627305
4.730000000 0.357014 0.61813
4.740000000 0.371772 0.608504
4.750000000 0.386358 0.598536
4.760000000 0.400749 0.588192
4.770000000 0.414816 0.577492
4.780000000 0.428695 0.566472
4.790000000 0.442318 0.555002
4.800000000 0.455705 0.54321
4.810000000 0.468745 0.531169
4.820000000 0.481522 0.518682
4.830000000 0.494056 0.505845
4.840000000 0.506271 0.492761
4.850000000 0.518239 0.479403
4.860000000 0.529866 0.4657
4.870000000 0.541155 0.45178
4.880000000 0.552137 0.437616
4.890000000 0.562753 0.42318
4.900000000 0.572998 0.408564
4.910000000 0.582773 0.39372
4.920000000 0.592187 0.378703
4.930000000 0.601126 0.363456
4.940000000 0.609702 0.347959
4.950000000 0.617753 0.332337
4.960000000 0.62542 0.316395
4.970000000 0.63274 0.300312
4.980000000 0.639566 0.284124
4.990000000 0.646129 0.267683
5.000000000 0.652155 0.251204
5.010000000 0.65785 0.234556
5.020000000 0.663199 0.217866
5.030000000 0.6681 0.20118
5.040000000 0.672617 0.184467
5.050000000 0.676685 0.167591
5.060000000 0.680221 0.15064
5.070000000 0.683269 0.13367
5.080000000 0.685922 0.116519
5.090000000 0.688146 0.099383
5.100000000 0.689986 0.082018
5.110000000 0.691401 0.064614
5.120000000 0.692478 0.047218
5.130000000 0.693142 0.029712
5.140000000 0.693441 0.012152
5.150000000 0.69327 -0.00531
5.160000000 0.692743 -0.022701
5.170000000 0.691706 -0.040163
5.180000000 0.690267 -0.05751
5.190000000 0.688328 -0.074858
5.200000000 0.685825 -0.092087
5.210000000 0.682878 -0.109317
5.220000000 0.679508 -0.126508
5.230000000 0.675743 -0.143624
5.240000000 0.671604 -0.160753
5.250000000 0.667137 -0.177763
5.260000000 0.66225 -0.194715
5.270000000 0.65705 -0.211464
5.280000000 0.651562 -0.227981
5.290000000 0.645685 -0.244265
5.300000000 0.639383 -0.260335
5.310000000 0.632772 -0.276152
5.320000000 0.625607 -0.29173
5.330000000 0.617954 -0.307116
5.340000000 0.609885 -0.322194
5.350000000 0.601384 -0.337114
5.360000000 0.592495 -0.351883
5.370000000 0.583233 -0.366345
5.380000000 0.573686 -0.38072
5.390000000 0.563728 -0.394875
5.400000000 0.553554 -0.408846
5.410000000 0.543067 -0.422442
5.420000000 0.5322 -0.435685
5.430000000 0.520972 -0.44875
5.440000000 0.509449 -0.461305
5.450000000 0.497498 -0.473618
5.460000000 0.485207 -0.485516
5.470000000 0.472441 -0.497125
5.480000000 0.459371 -0.508458
5.490000000 0.44612 -0.519315
5.500000000 0.432573 -0.529938
5.510000000 0.418952 -0.540161
5.520000000 0.405314 -0.550124
5.530000000 0.391643 -0.55978
5.540000000 0.377985 -0.569106
5.550000000 0.364244 -0.578206
5.560000000 0.350425 -0.586968
5.570000000 0.336469 -0.595426
5.580000000 0.32216 -0.603559
5.590000000 0.307527 -0.611308
5.600000000 0.292785 -0.618632
5.610000000 0.277741 -0.62565
5.620000000 0.262383 -0.632185
5.630000000 0.246816 -0.638364
5.640000000 0.231166 -0.644183
5.650000000 0.215295 -0.649688
5.660000000 0.199403 -0.65477
5.670000000 0.183343 -0.659435
5.680000000 0.167224 -0.663717
5.690000000 0.15104 -0.667567
5.700000000 0.134708 -0.670954
5.710000000 0.118207 -0.673801
5.720000000 0.101637 -0.676233
5.730000000 0.084768 -0.678202
5.740000000 0.067848 -0.67975
5.750000000 0.050723 -0.680995
5.760000000 0.033583 -0.681821
5.770000000 0.016279 -0.682387
5.780000000 -0.001053 -0.682488
5.790000000 -0.018255 -0.68225
5.800000000 -0.035464 -0.6816
5.810000000 -0.052668 -0.68057
5.820000000 -0.069763 -0.678983
5.830000000 -0.086869 -0.677046
5.840000000 -0.103837 -0.674691
5.850000000 -0.12061 -0.67189
5.860000000 -0.137364 -0.668646
5.870000000 -0.153928 -0.664981
5.880000000 -0.170351 -0.660961
5.890000000 -0.186727 -0.656576
5.900000000 -0.202791 -0.651835
5.910000000 -0.218709 -0.64677
5.920000000 -0.234424 -0.641359
5.930000000 -0.249865 -0.635636
5.940000000 -0.265105 -0.629558
5.950000000 -0.280098 -0.623137
5.960000000 -0.294763 -0.616361
5.970000000 -0.30923 -0.609158
5.980000000 -0.323553 -0.601517
5.990000000 -0.337582 -0.593516
6.000000000 -0.351517 -0.585177
6.010000000 -0.365226 -0.576349
6.020000000 -0.378759 -0.567138
6.030000000 -0.392209 -0.557671
6.040000000 -0.405374 -0.54775
6.050000000 -0.418446 -0.537454
6.060000000 -0.431243 -0.526808
6.070000000 -0.443854 -0.515781
6.080000000 -0.456327 -0.504333
6.090000000 -0.468568 -0.49258
6.100000000 -0.480547 -0.480403
6.110000000 -0.492381 -0.467936
6.120000000 -0.503951 -0.455155
6.130000000 -0.515279 -0.442045
6.140000000 -0.526321 -0.428685
6.150000000 -0.537039 -0.415148
6.160000000 -0.547503 -0.401437
6.170000000 -0.557584 -0.387494
6.180000000 -0.567319 -0.373463
6.190000000 -0.576657 -0.359316
6.200000000 -0.585725 -0.345122
6.210000000 -0.594245 -0.330801
6.220000000 -0.602428 -0.316425
6.230000000 -0.610199 -0.302043
6.240000000 -0.61751 -0.287632
6.250000000 -0.624378 -0.273173
6.260000000 -0.630876 -0.258719
6.270000000 -0.636853 -0.244303
6.280000000 -0.642458 -0.229836
6.290000000 -0.647448 -0.215249
6.300000000 -0.652061 -0.200585
6.310000000 -0.656199 -0.18572
6.320000000 -0.659936 -0.170749
6.330000000 -0.663227 -0.155539
6.340000000 -0.666245 -0.140154
6.350000000 -0.668898 -0.124503
6.360000000 -0.671205 -0.108667
6.370000000 -0.673195 -0.092569
6.380000000 -0.674914 -0.076301
6.390000000 -0.676153 -0.059862
6.400000000 -0.677145 -0.043287
6.410000000 -0.677686 -0.026523
6.420000000 -0.677858 -0.009704
6.430000000 -0.677616 0.007197
6.440000000 -0.677013 0.024087
6.450000000 -0.676034 0.041133
6.460000000 -0.674752 0.057991
6.470000000 -0.673194 0.074918
6.480000000 -0.671272 0.091746
6.490000000 -0.669135 0.108341
6.500000000 -0.666728 0.124734
6.510000000 -0.664106 0.140737
6.520000000 -0.661166 0.156551
6.530000000 -0.657893 0.172016
6.540000000 -0.65416 0.187058
6.550000000 -0.650101 0.201763
6.560000000 -0.645656 0.216253
6.570000000 -0.640729 0.230538
6.580000000 -0.6354 0.24454
6.590000000 -0.629707 0.258474
6.600000000 -0.623674 0.272264
6.610000000 -0.617225 0.285904
6.620000000 -0.610484 0.299563
6.630000000 -0.603439 0.312993
6.640000000 -0.596034 0.326411
6.650000000 -0.588248 0.339672
6.660000000 -0.580163 0.35284
6.670000000 -0.571678 0.365831
6.680000000 -0.562773 0.378665
6.690000000 -0.553507 0.391331
6.700000000 -0.543883 0.403789
6.710000000 -0.533836 0.416174
6.720000000 -0.523533 0.428505
6.730000000 -0.512945 0.440678
6.740000000 -0.502223 0.452814
6.750000000 -0.491261 0.464792
6.760000000 -0.480245 0.476392
6.770000000 -0.469182 0.487827
6.780000000 -0.458006 0.498803
6.790000000 -0.44662 0.509516
6.800000000 -0.435108 0.519567
6.810000000 -0.423372 0.529257
6.820000000 -0.411437 0.538516
6.830000000 -0.399111 0.547382
6.840000000 -0.386555 0.555908
6.850000000 -0.373806 0.564104
6.860000000 -0.360746 0.571964
6.870000000 -0.347577 0.579646
6.880000000 -0.334205 0.587131
6.890000000 -0.320672 0.594252
6.900000000 -0.307065 0.601233
6.910000000 -0.29329 0.607812
6.920000000 -0.279432 0.614097
6.930000000 -0.265482 0.620004
6.940000000 -0.251324 0.625552
6.950000000 -0.237085 0.630708
6.960000000 -0.222541 0.63554
6.970000000 -0.207847 0.640052
6.980000000 -0.192987 0.644297
6.990000000 -0.178049 0.648343
7.000000000 -0.16298 0.652135
7.010000000 -0.147867 0.655625
7.020000000 -0.132782 0.659065
7.030000000 -0.117641 0.662146
7.040000000 -0.102744 0.664832
7.050000000 -0.087782 0.667119
7.060000000 -0.072933 0.66892
7.070000000 -0.058034 0.670192
7.080000000 -0.043101 0.671018
7.090000000 -0.028172 0.671348
7.100000000 -0.013166 0.67116
7.110000000 0.001941 0.670613
7.120000000 0.017126 0.669726
7.130000000 0.032367 0.668514
7.140000000 0.047608 0.66708
7.150000000 0.062778 0.6654
7.160000000 0.077994 0.663442
7.170000000 0.09309 0.661174
7.180000000 0.10799 0.658577
7.190000000 0.122809 0.655729
7.200000000 0.137571 0.652439
7.210000000 0.152156 0.64876
7.220000000 0.166691 0.644763
7.230000000 0.181086 0.64045
7.240000000 0.195521 0.635853
7.250000000 0.209823 0.631027
7.260000000 0.224151 0.625949
7.270000000 0.23827 0.620699
7.280000000 0.252364 0.615225
7.290000000 0.266147 0.609442
7.300000000 0.27977 0.603542
7.310000000 0.293135 0.597161
7.320000000 0.306333 0.590402
7.330000000 0.319244 0.583381
7.340000000 0.331931 0.575922
7.350000000 0.344418 0.568059
7.360000000 0.356729 0.559839
7.370000000 0.36894 0.55128
7.380000000 0.380948 0.542431
7.390000000 0.392832 0.533293
7.400000000 0.404607 0.523907
7.410000000 0.416133 0.514365
7.420000000 0.4275 0.504664
7.430000000 0.43858 0.494764
7.440000000 0.449466 0.484674
7.450000000 0.460123 0.47443
7.460000000 0.470496 0.463927
7.470000000 0.480547 0.453327
7.480000000 0.490438 0.442367
7.490000000 0.500055 0.431277
7.500000000 0.509442 0.419976
7.510000000 0.518641 0.408576
7.520000000 0.527576 0.396942
7.530000000 0.536364 0.385136
7.540000000 0.544679 0.373268
7.550000000 0.552763 0.361226
7.560000000 0.560576 0.348998
7.570000000 0.56791 0.336685
7.580000000 0.574958 0.324047
7.590000000 0.581623 0.31141
7.600000000 0.587936 0.298343
7.610000000 0.593864 0.285191
7.620000000 0.599509 0.271804
7.630000000 0.604821 0.258208
7.640000000 0.609897 0.244471
7.650000000 0.614667 0.230531
7.660000000 0.619141 0.216457
7.670000000 0.623443 0.202275
7.680000000 0.627337 0.188004
7.690000000 0.631031 0.17363
7.700000000 0.634413 0.15923
7.710000000 0.637479 0.144743
7.720000000 0.640255 0.130182
7.730000000 0.642729 0.115527
7.740000000 0.644906 0.100865
7.750000000 0.646826 0.086227
7.760000000 0.648362 0.071505
7.770000000 0.649654 0.056814
7.780000000 0.650694 0.042177
7.790000000 0.651328 0.027538
7.800000000 0.651638 0.013001
7.810000000 0.651618 -0.00158
7.820000000 0.651151 -0.016026
7.830000000 0.650327 -0.030475
7.840000000 0.649099 -0.044849
7.850000000 0.647562 -0.059181
7.860000000 0.645589 -0.073515
7.870000000 0.643228 -0.08773
7.880000000 0.640489 -0.101979
7.890000000 0.63743 -0.1161
7.900000000 0.634004 -0.130146
7.910000000 0.63024 -0.144136
7.920000000 0.626159 -0.157973
7.930000000 0.621682 -0.171743
7.940000000 0.616931 -0.185459
7.950000000 0.611865 -0.19911
7.960000000 0.606504 -0.21269
7.970000000 0.600812 -0.226223
7.980000000 0.594919 -0.239707
7.990000000 0.588715 -0.253107
8.000000000 0.582254 -0.266396
8.010000000 0.575533 -0.279561
8.020000000 0.568532 -0.292619
8.030000000 0.561109 -0.305457
8.040000000 0.553503 -0.318249
8.050000000 0.545455 -0.330862
8.060000000 0.537066 -0.343246
8.070000000 0.52832 -0.355459
8.080000000 0.519229 -0.367532
8.090000000 0.509821 -0.379372
8.100000000 0.500096 -0.391096
8.110000000 0.49005 -0.402552
8.120000000 0.479695 -0.41383
8.130000000 0.469164 -0.424817
8.140000000 0.458378 -0.435593
8.150000000 0.447322 -0.445946
8.160000000 0.436162 -0.456031
8.170000000 0.42483 -0.465753
8.180000000 0.413268 -0.475021
8.190000000 0.401664 -0.48395
8.200000000 0.389836 -0.492425
8.210000000 0.377867 -0.500745
8.220000000 0.365897 -0.508917
8.230000000 0.353809 -0.516764
8.240000000 0.341575 -0.524544
8.250000000 0.329257 -0.532133
8.260000000 0.316855 -0.53946
8.270000000 0.304194 -0.546641
8.280000000 0.291385 -0.553402
8.290000000 0.278398 -0.559829
8.300000000 0.265114 -0.56577
8.310000000 0.251671 -0.571372
8.320000000 0.237829 -0.576533
8.330000000 0.223768 -0.581308
8.340000000 0.209352 -0.585786
8.350000000 0.194642 -0.589884
8.360000000 0.179695 -0.593744
8.370000000 0.164429 -0.597278
8.380000000 0.149019 -0.600461
8.390000000 0.133504 -0.603329
8.400000000 0.117767 -0.605943
8.410000000 0.102032 -0.608131
8.420000000 0.086228 -0.609976
8.430000000 0.070467 -0.611312
8.440000000 0.054672 -0.612286
8.450000000 0.038852 -0.612819
8.460000000 0.023118 -0.612948
8.470000000 0.007314 -0.61278
8.480000000 -0.008445 -0.612353
8.490000000 -0.024229 -0.611551
8.500000000 -0.039811 -0.610729
