! LibreCAL 5mOUNstcbC0A set FACTORY P2_OPEN
# GHz S RI R 50
0.000009000 0.999382 -0.012776
0.000010000 0.998662 -0.011625
0.000011000 0.998029 -0.010757
0.000012000 0.997795 -0.010096
0.000013000 0.997491 -0.009464
0.000014000 0.997201 -0.008804
0.000015000 0.997181 -0.008362
0.000016000 0.996824 -0.00799
0.000017000 0.996927 -0.007653
0.000018000 0.996735 -0.007348
0.000019000 0.996506 -0.006872
0.000020000 0.996563 -0.006759
0.000021000 0.996297 -0.006652
0.000022000 0.996255 -0.006318
0.000023000 0.996243 -0.006298
0.000024000 0.996178 -0.006048
0.000025000 0.996268 -0.005819
0.000026000 0.996225 -0.005724
0.000027000 0.996345 -0.005593
0.000028000 0.996038 -0.005418
0.000029000 0.996028 -0.00533
0.000030000 0.995936 -0.005282
0.000031000 0.996087 -0.005081
0.000032000 0.996054 -0.004956
0.000033000 0.995999 -0.004958
0.000034000 0.995918 -0.004843
0.000035000 0.995924 -0.004808
0.000036000 0.995963 -0.004801
0.000037000 0.995956 -0.004679
0.000038000 0.995968 -0.00474
0.000039000 0.995863 -0.004731
0.000040000 0.995978 -0.004584
0.000041000 0.995996 -0.004546
0.000042000 0.995791 -0.004343
0.000043000 0.99584 -0.00442
0.000044000 0.995763 -0.004316
0.000045000 0.995843 -0.004484
0.000046000 0.995752 -0.004351
0.000047000 0.995879 -0.004203
0.000048000 0.995796 -0.004274
0.000049000 0.995806 -0.004256
0.000050000 0.995899 -0.004341
0.000051000 0.995673 -0.004248
0.000052000 0.995608 -0.004238
0.000053000 0.995854 -0.004289
0.000054000 0.995987 -0.00415
0.000055000 0.995904 -0.004148
0.000056000 0.995836 -0.004329
0.000057000 0.995973 -0.004202
0.000058000 0.995834 -0.004412
0.000059000 0.995904 -0.00423
0.000060000 0.995902 -0.004204
0.000061000 0.995867 -0.004221
0.000062000 0.995718 -0.004312
0.000063000 0.995716 -0.004324
0.000064000 0.995768 -0.004234
0.000065000 0.995816 -0.004212
0.000066000 0.995755 -0.004313
0.000067000 0.995813 -0.004337
0.000068000 0.995875 -0.004293
0.000069000 0.995758 -0.004374
0.000070000 0.995808 -0.004362
0.000071000 0.995771 -0.004363
0.000072000 0.995701 -0.004326
0.000073000 0.995689 -0.004446
0.000074000 0.995817 -0.004585
0.000075000 0.995845 -0.004505
0.000076000 0.99571 -0.004538
0.000077000 0.995496 -0.004451
0.000078000 0.995669 -0.004558
0.000079000 0.995622 -0.004608
0.000080000 0.995659 -0.004559
0.000081000 0.995579 -0.00472
0.000082000 0.995679 -0.004702
0.000083000 0.995588 -0.004758
0.000084000 0.995497 -0.004714
0.000085000 0.995586 -0.004639
0.000086000 0.995622 -0.004705
0.000087000 0.99553 -0.004702
0.000088000 0.995533 -0.004888
0.000089000 0.995475 -0.004889
0.000090000 0.995499 -0.00485
0.000091000 0.995499 -0.004819
0.000092000 0.995428 -0.004929
0.000093000 0.995577 -0.004989
0.000094000 0.995574 -0.004949
0.000095000 0.995544 -0.004903
0.000096000 0.995455 -0.004992
0.000097000 0.995287 -0.005003
0.000098000 0.995344 -0.005043
0.000099000 0.995411 -0.005098
0.000100000 0.995337 -0.005006
0.000110000 0.995355 -0.005364
0.000120000 0.995273 -0.005688
0.000130000 0.995182 -0.00602
0.000140000 0.995139 -0.006191
0.000150000 0.994916 -0.006531
0.000160000 0.99467 -0.006943
0.000170000 0.99468 -0.007127
0.000180000 0.994569 -0.007551
0.000190000 0.994443 -0.007724
0.000200000 0.99432 -0.008099
0.000210000 0.994054 -0.008384
0.000220000 0.993961 -0.008705
0.000230000 0.993765 -0.008963
0.000240000 0.993608 -0.009176
0.000250000 0.993539 -0.009611
0.000260000 0.993155 -0.009972
0.000270000 0.992961 -0.010322
0.000280000 0.992728 -0.010539
0.000290000 0.99262 -0.010808
0.000300000 0.992511 -0.011054
0.000310000 0.992322 -0.01125
0.000320000 0.992082 -0.011404
0.000330000 0.991837 -0.011919
0.000340000 0.991558 -0.011976
0.000350000 0.991249 -0.012319
0.000360000 0.991209 -0.012575
0.000370000 0.990892 -0.01271
0.000380000 0.990732 -0.012929
0.000390000 0.990598 -0.013093
0.000400000 0.990365 -0.013502
0.000410000 0.990137 -0.013685
0.000420000 0.989975 -0.013833
0.000430000 0.989742 -0.014006
0.000440000 0.989533 -0.014193
0.000450000 0.989262 -0.014424
0.000460000 0.988966 -0.01467
0.000470000 0.988878 -0.01493
0.000480000 0.988721 -0.015035
0.000490000 0.988516 -0.015286
0.000500000 0.988179 -0.015303
0.000510000 0.988031 -0.015542
0.000520000 0.98776 -0.015646
0.000530000 0.987494 -0.015683
0.000540000 0.98739 -0.015995
0.000550000 0.987114 -0.016171
0.000560000 0.98688 -0.016239
0.000570000 0.986723 -0.016333
0.000580000 0.986559 -0.01648
0.000590000 0.986453 -0.016658
0.000600000 0.986114 -0.016818
0.000610000 0.98585 -0.016963
0.000620000 0.985775 -0.017102
0.000630000 0.98544 -0.017096
0.000640000 0.985287 -0.017257
0.000650000 0.984916 -0.017251
0.000660000 0.984868 -0.017511
0.000670000 0.984667 -0.017721
0.000680000 0.984556 -0.017772
0.000690000 0.984324 -0.017857
0.000700000 0.984133 -0.018054
0.000710000 0.983917 -0.018018
0.000720000 0.983736 -0.018197
0.000730000 0.983567 -0.018369
0.000740000 0.983339 -0.018265
0.000750000 0.983102 -0.018382
0.000760000 0.983026 -0.01847
0.000770000 0.98269 -0.0186
0.000780000 0.982727 -0.018545
0.000790000 0.982379 -0.018819
0.000800000 0.982269 -0.018678
0.000810000 0.982192 -0.01879
0.000820000 0.981802 -0.018999
0.000830000 0.981679 -0.019002
0.000840000 0.981569 -0.019067
0.000850000 0.981346 -0.019088
0.000860000 0.981107 -0.019185
0.000870000 0.980878 -0.019185
0.000880000 0.980836 -0.019346
0.000890000 0.980538 -0.019413
0.000900000 0.980586 -0.019367
0.000910000 0.980265 -0.01947
0.000920000 0.980103 -0.019552
0.000930000 0.979885 -0.019545
0.000940000 0.979866 -0.019593
0.000950000 0.979764 -0.019661
0.000960000 0.979562 -0.019678
0.000970000 0.979468 -0.019647
0.000980000 0.979207 -0.019729
0.000990000 0.979027 -0.019922
0.001000000 0.978778 -0.019893
0.001100000 0.977549 -0.020307
0.001200000 0.975995 -0.020599
0.001300000 0.974834 -0.02063
0.001400000 0.973724 -0.021004
0.001500000 0.972732 -0.020932
0.001600000 0.971654 -0.021134
0.001700000 0.970776 -0.021269
0.001800000 0.969967 -0.021228
0.001900000 0.969317 -0.02112
0.002000000 0.968713 -0.021064
0.002100000 0.967948 -0.021242
0.002200000 0.967289 -0.021297
0.002300000 0.966869 -0.021296
0.002400000 0.966249 -0.021293
0.002500000 0.965802 -0.021093
0.002600000 0.965552 -0.021296
0.002700000 0.965169 -0.021286
0.002800000 0.964681 -0.021294
0.002900000 0.964212 -0.021437
0.003000000 0.963969 -0.021458
0.003100000 0.963574 -0.021643
0.003200000 0.963266 -0.021608
0.003300000 0.962923 -0.021615
0.003400000 0.962405 -0.021709
0.003500000 0.96223 -0.021774
0.003600000 0.961929 -0.021807
0.003700000 0.961844 -0.021916
0.003800000 0.961406 -0.02209
0.003900000 0.961273 -0.022172
0.004000000 0.961122 -0.022046
0.004100000 0.960826 -0.022213
0.004200000 0.960652 -0.022511
0.004300000 0.960371 -0.022277
0.004400000 0.960121 -0.022452
0.004500000 0.960105 -0.022598
0.004600000 0.959813 -0.022652
0.004700000 0.95982 -0.022939
0.004800000 0.95966 -0.022795
0.004900000 0.959551 -0.023002
0.005000000 0.959308 -0.023152
0.005100000 0.95914 -0.023258
0.005200000 0.959019 -0.023437
0.005300000 0.958951 -0.023542
0.005400000 0.958716 -0.023711
0.005500000 0.95862 -0.023855
0.005600000 0.95841 -0.023954
0.005700000 0.95837 -0.0241
0.005800000 0.958316 -0.024299
0.005900000 0.958127 -0.024373
0.006000000 0.958033 -0.0245
0.006100000 0.957892 -0.024513
0.006200000 0.957868 -0.024708
0.006300000 0.95776 -0.024889
0.006400000 0.957726 -0.025068
0.006500000 0.957619 -0.025184
0.006600000 0.9575 -0.025422
0.006700000 0.957353 -0.025531
0.006800000 0.957341 -0.025606
0.006900000 0.957272 -0.025829
0.007000000 0.957238 -0.025946
0.007100000 0.957053 -0.026176
0.007200000 0.956981 -0.026279
0.007300000 0.957017 -0.026509
0.007400000 0.956916 -0.026626
0.007500000 0.95681 -0.026776
0.007600000 0.9567 -0.026963
0.007700000 0.956681 -0.027132
0.007800000 0.956569 -0.027266
0.007900000 0.95653 -0.027482
0.008000000 0.956482 -0.027647
0.008100000 0.956449 -0.027848
0.008200000 0.956359 -0.02796
0.008300000 0.956241 -0.028124
0.008400000 0.956185 -0.028298
0.008500000 0.956146 -0.028535
0.008600000 0.95612 -0.028697
0.008700000 0.956021 -0.02891
0.008800000 0.956006 -0.029062
0.008900000 0.955896 -0.029221
0.009000000 0.955938 -0.029492
0.009100000 0.955841 -0.02959
0.009200000 0.955824 -0.029813
0.009300000 0.955737 -0.030024
0.009400000 0.955628 -0.030196
0.009500000 0.955626 -0.030393
0.009600000 0.955628 -0.030568
0.009700000 0.955616 -0.030766
0.009800000 0.955489 -0.030898
0.009900000 0.955413 -0.031156
0.010000000 0.955416 -0.03129
0.011000000 0.954946 -0.033237
0.012000000 0.954573 -0.035269
0.013000000 0.954177 -0.037301
0.014000000 0.953855 -0.039337
0.015000000 0.953543 -0.041468
0.016000000 0.953259 -0.043575
0.017000000 0.95303 -0.045803
0.018000000 0.952784 -0.047902
0.019000000 0.952593 -0.050112
0.020000000 0.952353 -0.05231
0.021000000 0.952113 -0.05456
0.022000000 0.951798 -0.056838
0.023000000 0.951588 -0.059119
0.024000000 0.95126 -0.061376
0.025000000 0.951022 -0.06362
0.026000000 0.950712 -0.065938
0.027000000 0.9505 -0.068213
0.028000000 0.950179 -0.070482
0.029000000 0.949869 -0.072824
0.030000000 0.949568 -0.075041
0.031000000 0.949281 -0.07736
0.032000000 0.948981 -0.079666
0.033000000 0.948684 -0.081891
0.034000000 0.948372 -0.08417
0.035000000 0.948002 -0.086423
0.036000000 0.947703 -0.088733
0.037000000 0.947344 -0.091022
0.038000000 0.947005 -0.09325
0.039000000 0.946707 -0.095535
0.040000000 0.946273 -0.097819
0.041000000 0.945976 -0.100087
0.042000000 0.945676 -0.102395
0.043000000 0.945275 -0.104608
0.044000000 0.944871 -0.106848
0.045000000 0.944499 -0.109119
0.046000000 0.94414 -0.111366
0.047000000 0.943741 -0.113685
0.048000000 0.943375 -0.115927
0.049000000 0.942958 -0.1182
0.050000000 0.942552 -0.120399
0.051000000 0.942208 -0.122658
0.052000000 0.94177 -0.124915
0.053000000 0.941365 -0.127167
0.054000000 0.940931 -0.129375
0.055000000 0.940558 -0.13163
0.056000000 0.940157 -0.133833
0.057000000 0.939745 -0.136056
0.058000000 0.939246 -0.138334
0.059000000 0.938894 -0.140515
0.060000000 0.938419 -0.142758
0.061000000 0.937969 -0.144979
0.062000000 0.937542 -0.147139
0.063000000 0.937083 -0.149358
0.064000000 0.936608 -0.151651
0.065000000 0.936149 -0.153804
0.066000000 0.935703 -0.15604
0.067000000 0.935241 -0.158251
0.068000000 0.934787 -0.160424
0.069000000 0.934253 -0.162662
0.070000000 0.933791 -0.164872
0.071000000 0.933335 -0.167061
0.072000000 0.932801 -0.169232
0.073000000 0.932339 -0.171396
0.074000000 0.931806 -0.173516
0.075000000 0.931323 -0.175737
0.076000000 0.930784 -0.177923
0.077000000 0.930331 -0.180146
0.078000000 0.929761 -0.182343
0.079000000 0.92929 -0.184524
0.080000000 0.928728 -0.186652
0.081000000 0.928215 -0.188848
0.082000000 0.927639 -0.191012
0.083000000 0.927111 -0.193135
0.084000000 0.926601 -0.195288
0.085000000 0.926041 -0.19745
0.086000000 0.925461 -0.199614
0.087000000 0.924959 -0.201809
0.088000000 0.924376 -0.204019
0.089000000 0.923784 -0.206097
0.090000000 0.923258 -0.208279
0.091000000 0.922655 -0.210395
0.092000000 0.922062 -0.212488
0.093000000 0.921532 -0.214636
0.094000000 0.920986 -0.216825
0.095000000 0.920359 -0.218939
0.096000000 0.919785 -0.221112
0.097000000 0.919145 -0.223277
0.098000000 0.918575 -0.225383
0.099000000 0.917937 -0.22751
0.100000000 0.917339 -0.229618
0.110000000 0.910962 -0.250721
0.120000000 0.904184 -0.271615
0.130000000 0.896942 -0.292255
0.140000000 0.88924 -0.31275
0.150000000 0.881137 -0.332957
0.160000000 0.872598 -0.352952
0.170000000 0.8634 -0.372697
0.180000000 0.853982 -0.392249
0.190000000 0.844067 -0.411481
0.200000000 0.83347 -0.43065
0.210000000 0.822623 -0.449405
0.220000000 0.811321 -0.46795
0.230000000 0.799417 -0.486318
0.240000000 0.786987 -0.504702
0.250000000 0.774346 -0.52258
0.260000000 0.761013 -0.5406
0.270000000 0.747688 -0.557735
0.280000000 0.733909 -0.574713
0.290000000 0.719466 -0.591725
0.300000000 0.704593 -0.608493
0.310000000 0.689532 -0.624474
0.320000000 0.674052 -0.639694
0.330000000 0.658009 -0.655068
0.340000000 0.641609 -0.670099
0.350000000 0.624916 -0.684882
0.360000000 0.607941 -0.699364
0.370000000 0.590619 -0.713341
0.380000000 0.572886 -0.726873
0.390000000 0.555043 -0.740092
0.400000000 0.536787 -0.752828
0.410000000 0.518288 -0.765062
0.420000000 0.499397 -0.776839
0.430000000 0.480184 -0.788119
0.440000000 0.461238 -0.799117
0.450000000 0.442021 -0.809488
0.460000000 0.422165 -0.819402
0.470000000 0.401871 -0.828839
0.480000000 0.381795 -0.837902
0.490000000 0.361352 -0.846543
0.500000000 0.340908 -0.854784
0.510000000 0.320001 -0.862419
0.520000000 0.29912 -0.869673
0.530000000 0.27782 -0.876339
0.540000000 0.256633 -0.88258
0.550000000 0.235078 -0.888243
0.560000000 0.213536 -0.893272
0.570000000 0.1918 -0.897706
0.580000000 0.170002 -0.901472
0.590000000 0.148077 -0.904707
0.600000000 0.125829 -0.907285
0.610000000 0.103618 -0.909349
0.620000000 0.081209 -0.910838
0.630000000 0.058809 -0.911645
0.640000000 0.036225 -0.911969
0.650000000 0.013718 -0.91178
0.660000000 -0.00892 -0.910865
0.670000000 -0.031412 -0.909393
0.680000000 -0.053979 -0.907268
0.690000000 -0.076492 -0.904547
0.700000000 -0.098919 -0.901234
0.710000000 -0.121177 -0.897329
0.720000000 -0.143553 -0.892842
0.730000000 -0.165842 -0.88785
0.740000000 -0.187987 -0.882252
0.750000000 -0.210098 -0.876226
0.760000000 -0.231954 -0.869744
0.770000000 -0.253684 -0.862822
0.780000000 -0.275309 -0.855432
0.790000000 -0.296611 -0.847658
0.800000000 -0.317603 -0.839418
0.810000000 -0.33838 -0.830704
0.820000000 -0.358963 -0.821528
0.830000000 -0.37912 -0.811814
0.840000000 -0.399043 -0.801608
0.850000000 -0.418564 -0.791033
0.860000000 -0.437973 -0.779866
0.870000000 -0.456993 -0.768278
0.880000000 -0.47577 -0.75625
0.890000000 -0.494202 -0.743739
0.900000000 -0.512348 -0.730787
0.910000000 -0.530218 -0.7174
0.920000000 -0.547819 -0.703527
0.930000000 -0.564947 -0.689206
0.940000000 -0.581793 -0.674424
0.950000000 -0.598143 -0.659105
0.960000000 -0.614009 -0.643258
0.970000000 -0.629635 -0.626998
0.980000000 -0.644883 -0.610052
0.990000000 -0.659537 -0.592623
1.000000000 -0.673925 -0.574907
1.010000000 -0.687903 -0.5566
1.020000000 -0.701511 -0.537909
1.030000000 -0.714743 -0.518849
1.040000000 -0.727283 -0.499378
1.050000000 -0.739638 -0.479539
1.060000000 -0.751331 -0.459457
1.070000000 -0.762413 -0.439015
1.080000000 -0.772872 -0.418219
1.090000000 -0.782821 -0.397203
1.100000000 -0.792186 -0.375875
1.110000000 -0.800946 -0.354342
1.120000000 -0.809206 -0.332663
1.130000000 -0.816822 -0.310714
1.140000000 -0.823866 -0.288618
1.150000000 -0.830337 -0.266412
1.160000000 -0.836395 -0.24395
1.170000000 -0.841682 -0.221398
1.180000000 -0.846079 -0.198756
1.190000000 -0.849061 -0.176506
1.200000000 -0.852967 -0.155986
1.210000000 -0.857179 -0.133675
1.220000000 -0.860271 -0.110997
1.230000000 -0.862325 -0.088316
1.240000000 -0.863894 -0.065626
1.250000000 -0.864782 -0.042923
1.260000000 -0.86522 -0.020284
1.270000000 -0.865025 0.002417
1.280000000 -0.864235 0.025115
1.290000000 -0.862836 0.047893
1.300000000 -0.860996 0.070546
1.310000000 -0.858435 0.093206
1.320000000 -0.855283 0.115801
1.330000000 -0.851494 0.138313
1.340000000 -0.847069 0.160836
1.350000000 -0.841983 0.183222
1.360000000 -0.836218 0.205609
1.370000000 -0.829855 0.227824
1.380000000 -0.822874 0.249921
1.390000000 -0.815151 0.271849
1.400000000 -0.806784 0.293651
1.410000000 -0.797836 0.315178
1.420000000 -0.788211 0.336552
1.430000000 -0.777968 0.357685
1.440000000 -0.767168 0.378461
1.450000000 -0.755754 0.399005
1.460000000 -0.743847 0.419161
1.470000000 -0.731287 0.438993
1.480000000 -0.718298 0.458458
1.490000000 -0.704843 0.477554
1.500000000 -0.69089 0.496211
1.510000000 -0.676344 0.514415
1.520000000 -0.661569 0.532288
1.530000000 -0.646396 0.549553
1.540000000 -0.630732 0.566466
1.550000000 -0.614672 0.582895
1.560000000 -0.598374 0.598907
1.570000000 -0.581694 0.61442
1.580000000 -0.564668 0.629409
1.590000000 -0.54739 0.643951
1.600000000 -0.52982 0.657901
1.610000000 -0.511918 0.671538
1.620000000 -0.493819 0.684652
1.630000000 -0.475468 0.697188
1.640000000 -0.456821 0.709306
1.650000000 -0.437871 0.720913
1.660000000 -0.418732 0.732009
1.670000000 -0.399328 0.742595
1.680000000 -0.379737 0.752652
1.690000000 -0.359797 0.762179
1.700000000 -0.339669 0.771245
1.710000000 -0.319303 0.77979
1.720000000 -0.298627 0.78776
1.730000000 -0.27786 0.795251
1.740000000 -0.256784 0.802266
1.750000000 -0.23559 0.808555
1.760000000 -0.214131 0.81446
1.770000000 -0.192661 0.819861
1.780000000 -0.170962 0.824568
1.790000000 -0.149299 0.828685
1.800000000 -0.127355 0.832165
1.810000000 -0.105444 0.835124
1.820000000 -0.083453 0.837253
1.830000000 -0.061411 0.838827
1.840000000 -0.039241 0.83986
1.850000000 -0.017068 0.840182
1.860000000 0.005049 0.840005
1.870000000 0.027184 0.839148
1.880000000 0.049162 0.837784
1.890000000 0.071088 0.835821
1.900000000 0.092851 0.833335
1.910000000 0.114461 0.830297
1.920000000 0.135941 0.826747
1.930000000 0.157127 0.822725
1.940000000 0.178268 0.818048
1.950000000 0.199072 0.812838
1.960000000 0.219775 0.807158
1.970000000 0.24019 0.801115
1.980000000 0.260535 0.79458
1.990000000 0.280502 0.787521
2.000000000 0.300362 0.780184
2.010000000 0.319951 0.77243
2.020000000 0.339231 0.764275
2.030000000 0.358377 0.755722
2.040000000 0.377109 0.746898
2.050000000 0.395495 0.737535
2.060000000 0.413605 0.727835
2.070000000 0.431389 0.717625
2.080000000 0.448958 0.707027
2.090000000 0.466079 0.695842
2.100000000 0.483012 0.684215
2.110000000 0.499624 0.672314
2.120000000 0.516042 0.659849
2.130000000 0.53201 0.646919
2.140000000 0.547671 0.633568
2.150000000 0.563143 0.619908
2.160000000 0.578182 0.605985
2.170000000 0.592764 0.591521
2.180000000 0.607235 0.576571
2.190000000 0.621123 0.561284
2.200000000 0.634494 0.545655
2.210000000 0.647608 0.529489
2.220000000 0.660391 0.512996
2.230000000 0.672697 0.496117
2.240000000 0.684703 0.478923
2.250000000 0.696289 0.461169
2.260000000 0.707569 0.443344
2.270000000 0.718397 0.425178
2.280000000 0.728789 0.40684
2.290000000 0.738777 0.388495
2.300000000 0.748298 0.369779
2.310000000 0.757268 0.351004
2.320000000 0.76576 0.332075
2.330000000 0.773779 0.312891
2.340000000 0.781212 0.293572
2.350000000 0.788146 0.274382
2.360000000 0.794635 0.254894
2.370000000 0.800602 0.235485
2.380000000 0.80611 0.216004
2.390000000 0.811082 0.196437
2.400000000 0.815661 0.176933
2.410000000 0.819802 0.157453
2.420000000 0.823426 0.137949
2.430000000 0.826679 0.118501
2.440000000 0.829495 0.099159
2.450000000 0.831681 0.079845
2.460000000 0.833497 0.060397
2.470000000 0.834744 0.041024
2.480000000 0.835407 0.021565
2.490000000 0.835488 0.001948
2.500000000 0.835212 -0.017577
2.510000000 0.834426 -0.037271
2.520000000 0.833198 -0.056942
2.530000000 0.831424 -0.076634
2.540000000 0.829252 -0.096366
2.550000000 0.826623 -0.115999
2.560000000 0.823381 -0.135747
2.570000000 0.819656 -0.155348
2.580000000 0.815308 -0.17497
2.590000000 0.810399 -0.194497
2.600000000 0.805004 -0.213879
2.610000000 0.798978 -0.233129
2.620000000 0.792477 -0.252291
2.630000000 0.785527 -0.27122
2.640000000 0.778044 -0.289983
2.650000000 0.770061 -0.308519
2.660000000 0.761657 -0.326797
2.670000000 0.752822 -0.344849
2.680000000 0.743505 -0.362384
2.690000000 0.73371 -0.379613
2.700000000 0.723633 -0.396033
2.710000000 0.713215 -0.41173
2.720000000 0.70272 -0.426738
2.730000000 0.69249 -0.440973
2.740000000 0.682815 -0.45487
2.750000000 0.673598 -0.468884
2.760000000 0.664416 -0.483376
2.770000000 0.65508 -0.498285
2.780000000 0.645057 -0.513519
2.790000000 0.634364 -0.528702
2.800000000 0.623102 -0.543705
2.810000000 0.611318 -0.558351
2.820000000 0.599 -0.572615
2.830000000 0.586212 -0.586487
2.840000000 0.572979 -0.599891
2.850000000 0.559345 -0.612875
2.860000000 0.545369 -0.625572
2.870000000 0.531073 -0.637851
2.880000000 0.516419 -0.649742
2.890000000 0.501451 -0.661282
2.900000000 0.486202 -0.672377
2.910000000 0.470734 -0.68311
2.920000000 0.45477 -0.693546
2.930000000 0.438628 -0.703589
2.940000000 0.422252 -0.713188
2.950000000 0.405628 -0.722407
2.960000000 0.388699 -0.731341
2.970000000 0.37163 -0.73976
2.980000000 0.354247 -0.747817
2.990000000 0.336685 -0.755349
3.000000000 0.31898 -0.762546
3.010000000 0.301096 -0.769292
3.020000000 0.283036 -0.775678
3.030000000 0.264859 -0.781547
3.040000000 0.246513 -0.787044
3.050000000 0.228165 -0.792092
3.060000000 0.209702 -0.796658
3.070000000 0.19121 -0.800802
3.080000000 0.172563 -0.804498
3.090000000 0.153957 -0.807792
3.100000000 0.135287 -0.810644
3.110000000 0.11667 -0.813149
3.120000000 0.098079 -0.815153
3.130000000 0.079522 -0.81682
3.140000000 0.06101 -0.818116
3.150000000 0.042413 -0.819053
3.160000000 0.023974 -0.819538
3.170000000 0.005501 -0.819703
3.180000000 -0.0129 -0.819399
3.190000000 -0.031216 -0.818676
3.200000000 -0.049499 -0.817528
3.210000000 -0.067731 -0.816015
3.220000000 -0.085928 -0.814068
3.230000000 -0.10397 -0.811583
3.240000000 -0.122007 -0.808748
3.250000000 -0.14001 -0.805466
3.260000000 -0.15773 -0.80173
3.270000000 -0.175589 -0.797602
3.280000000 -0.193286 -0.792987
3.290000000 -0.210823 -0.787949
3.300000000 -0.228355 -0.782372
3.310000000 -0.2458 -0.776363
3.320000000 -0.263039 -0.769751
3.330000000 -0.280363 -0.762675
3.340000000 -0.297453 -0.755063
3.350000000 -0.314639 -0.746964
3.360000000 -0.331587 -0.738416
3.370000000 -0.348597 -0.729417
3.380000000 -0.365383 -0.719893
3.390000000 -0.382045 -0.710064
3.400000000 -0.39856 -0.699696
3.410000000 -0.414851 -0.688935
3.420000000 -0.430891 -0.677802
3.430000000 -0.446852 -0.666287
3.440000000 -0.462479 -0.654357
3.450000000 -0.477898 -0.642187
3.460000000 -0.49291 -0.629738
3.470000000 -0.507795 -0.616779
3.480000000 -0.522342 -0.603727
3.490000000 -0.536453 -0.59044
3.500000000 -0.550353 -0.576942
3.510000000 -0.563855 -0.563298
3.520000000 -0.57707 -0.549468
3.530000000 -0.589867 -0.535438
3.540000000 -0.602238 -0.52134
3.550000000 -0.61423 -0.506979
3.560000000 -0.62563 -0.492394
3.570000000 -0.636669 -0.477719
3.580000000 -0.647263 -0.462711
3.590000000 -0.65744 -0.447412
3.600000000 -0.667256 -0.431926
3.610000000 -0.676568 -0.416163
3.620000000 -0.685589 -0.400171
3.630000000 -0.694263 -0.383901
3.640000000 -0.70248 -0.367369
3.650000000 -0.710352 -0.350686
3.660000000 -0.717796 -0.333692
3.670000000 -0.724881 -0.316579
3.680000000 -0.731446 -0.299132
3.690000000 -0.737556 -0.28157
3.700000000 -0.743297 -0.263726
3.710000000 -0.748475 -0.245607
3.720000000 -0.753332 -0.227284
3.730000000 -0.757575 -0.208696
3.740000000 -0.761445 -0.18996
3.750000000 -0.765075 -0.171133
3.760000000 -0.768176 -0.152254
3.770000000 -0.77082 -0.133254
3.780000000 -0.773147 -0.11417
3.790000000 -0.775014 -0.095113
3.800000000 -0.776386 -0.076126
3.810000000 -0.777285 -0.05714
3.820000000 -0.777643 -0.038158
3.830000000 -0.777485 -0.019145
3.840000000 -0.776766 -0.000212
3.850000000 -0.775601 0.018698
3.860000000 -0.773988 0.037554
3.870000000 -0.771853 0.056473
3.880000000 -0.769241 0.075226
3.890000000 -0.766392 0.093938
3.900000000 -0.76307 0.112603
3.910000000 -0.75933 0.13095
3.920000000 -0.755287 0.149275
3.930000000 -0.7508 0.167351
3.940000000 -0.745987 0.185214
3.950000000 -0.740772 0.202916
3.960000000 -0.735153 0.220406
3.970000000 -0.728998 0.237744
3.980000000 -0.722503 0.254848
3.990000000 -0.715664 0.271851
4.000000000 -0.708555 0.288597
4.010000000 -0.701185 0.305172
4.020000000 -0.693442 0.321576
4.030000000 -0.68541 0.337737
4.040000000 -0.677189 0.353668
4.050000000 -0.668494 0.369381
4.060000000 -0.659522 0.384682
4.070000000 -0.65014 0.399839
4.080000000 -0.640266 0.414665
4.090000000 -0.629898 0.429225
4.100000000 -0.619079 0.443558
4.110000000 -0.60777 0.457619
4.120000000 -0.596027 0.471448
4.130000000 -0.583805 0.485059
4.140000000 -0.571111 0.498415
4.150000000 -0.557926 0.511458
4.160000000 -0.544425 0.524251
4.170000000 -0.53051 0.536834
4.180000000 -0.516152 0.54908
4.190000000 -0.501552 0.561001
4.200000000 -0.486595 0.572525
4.210000000 -0.471244 0.583718
4.220000000 -0.455763 0.594444
4.230000000 -0.439826 0.604785
4.240000000 -0.423727 0.614756
4.250000000 -0.407405 0.624367
4.260000000 -0.390859 0.633624
4.270000000 -0.374278 0.642551
4.280000000 -0.357574 0.651073
4.290000000 -0.340834 0.659345
4.300000000 -0.324129 0.667093
4.310000000 -0.307313 0.674438
4.320000000 -0.290483 0.681393
4.330000000 -0.273578 0.687876
4.340000000 -0.256696 0.693947
4.350000000 -0.239599 0.699441
4.360000000 -0.222388 0.704594
4.370000000 -0.205066 0.70926
4.380000000 -0.187667 0.713453
4.390000000 -0.170173 0.717231
4.400000000 -0.152515 0.720564
4.410000000 -0.134716 0.723485
4.420000000 -0.116878 0.725888
4.430000000 -0.098836 0.727888
4.440000000 -0.080813 0.729443
4.450000000 -0.062705 0.730567
4.460000000 -0.04438 0.731265
4.470000000 -0.026123 0.731556
4.480000000 -0.007815 0.731307
4.490000000 0.010473 0.730747
4.500000000 0.028872 0.729653
4.510000000 0.047233 0.728174
4.520000000 0.065573 0.726304
4.530000000 0.083846 0.723919
4.540000000 0.102089 0.721237
4.550000000 0.120197 0.717994
4.560000000 0.13819 0.714375
4.570000000 0.1561 0.710268
4.580000000 0.173852 0.705683
4.590000000 0.191462 0.700572
4.600000000 0.208932 0.695086
4.610000000 0.226271 0.689058
4.620000000 0.243442 0.682594
4.630000000 0.260349 0.675586
4.640000000 0.277064 0.668185
4.650000000 0.293619 0.660309
4.660000000 0.309929 0.651932
4.670000000 0.326072 0.643171
4.680000000 0.341933 0.633962
4.690000000 0.357502 0.624433
4.700000000 0.372831 0.614444
4.710000000 0.387901 0.604183
4.720000000 0.402765 0.593479
4.730000000 0.417381 0.582592
4.740000000 0.431783 0.571308
4.750000000 0.445944 0.559802
4.760000000 0.45977 0.548007
4.770000000 0.473333 0.536039
4.780000000 0.486712 0.523858
4.790000000 0.499647 0.511388
4.800000000 0.512284 0.498739
4.810000000 0.52459 0.485781
4.820000000 0.536456 0.472527
4.830000000 0.54797 0.459122
4.840000000 0.559195 0.445426
4.850000000 0.56998 0.431475
4.860000000 0.58044 0.417303
4.870000000 0.590485 0.402897
4.880000000 0.600151 0.388346
4.890000000 0.609324 0.373523
4.900000000 0.618097 0.35844
4.910000000 0.626402 0.343145
4.920000000 0.634255 0.327541
4.930000000 0.64163 0.311672
4.940000000 0.648589 0.295591
4.950000000 0.655115 0.27931
4.960000000 0.661164 0.262747
4.970000000 0.666853 0.245916
4.980000000 0.672169 0.228885
4.990000000 0.677111 0.211665
5.000000000 0.681719 0.194297
5.010000000 0.685943 0.176831
5.020000000 0.689873 0.159357
5.030000000 0.693382 0.141777
5.040000000 0.69658 0.12418
5.050000000 0.699321 0.106663
5.060000000 0.701609 0.089086
5.070000000 0.703493 0.071632
5.080000000 0.704974 0.054061
5.090000000 0.706017 0.036448
5.100000000 0.706681 0.018925
5.110000000 0.706989 0.001416
5.120000000 0.706864 -0.016048
5.130000000 0.706444 -0.033471
5.140000000 0.705617 -0.050709
5.150000000 0.704355 -0.067892
5.160000000 0.702765 -0.084873
5.170000000 0.700577 -0.101705
5.180000000 0.698066 -0.118442
5.190000000 0.694982 -0.135005
5.200000000 0.691443 -0.151635
5.210000000 0.687413 -0.168083
5.220000000 0.682975 -0.184418
5.230000000 0.678011 -0.2008
5.240000000 0.672675 -0.217061
5.250000000 0.666986 -0.233226
5.260000000 0.660956 -0.249449
5.270000000 0.654543 -0.265442
5.280000000 0.647922 -0.281262
5.290000000 0.640763 -0.297015
5.300000000 0.633275 -0.312547
5.310000000 0.625395 -0.327797
5.320000000 0.616994 -0.342805
5.330000000 0.60813 -0.357505
5.340000000 0.598815 -0.372061
5.350000000 0.589008 -0.386428
5.360000000 0.578812 -0.400592
5.370000000 0.568146 -0.414565
5.380000000 0.557214 -0.428442
5.390000000 0.546036 -0.442042
5.400000000 0.534493 -0.455414
5.410000000 0.522781 -0.468426
5.420000000 0.510774 -0.481268
5.430000000 0.498491 -0.493748
5.440000000 0.485837 -0.505818
5.450000000 0.472863 -0.51753
5.460000000 0.459505 -0.528846
5.470000000 0.445849 -0.539919
5.480000000 0.431863 -0.550485
5.490000000 0.417565 -0.560894
5.500000000 0.40321 -0.570926
5.510000000 0.388588 -0.580683
5.520000000 0.373968 -0.590127
5.530000000 0.359373 -0.599281
5.540000000 0.344752 -0.608064
5.550000000 0.330048 -0.616551
5.560000000 0.315362 -0.624667
5.570000000 0.300538 -0.632343
5.580000000 0.285537 -0.639638
5.590000000 0.270314 -0.646357
5.600000000 0.254973 -0.652718
5.610000000 0.239404 -0.658627
5.620000000 0.223667 -0.664093
5.630000000 0.207804 -0.669196
5.640000000 0.191829 -0.673898
5.650000000 0.175752 -0.678141
5.660000000 0.15955 -0.682016
5.670000000 0.143363 -0.685503
5.680000000 0.127032 -0.688615
5.690000000 0.1106 -0.691257
5.700000000 0.094126 -0.693306
5.710000000 0.077504 -0.694971
5.720000000 0.060803 -0.696007
5.730000000 0.043836 -0.696713
5.740000000 0.026724 -0.696919
5.750000000 0.009436 -0.696781
5.760000000 -0.007974 -0.696235
5.770000000 -0.02548 -0.695399
5.780000000 -0.043008 -0.694181
5.790000000 -0.060495 -0.692676
5.800000000 -0.077924 -0.690814
5.810000000 -0.095323 -0.688591
5.820000000 -0.112589 -0.685862
5.830000000 -0.129793 -0.682769
5.840000000 -0.146814 -0.679263
5.850000000 -0.163659 -0.675397
5.860000000 -0.180345 -0.67108
5.870000000 -0.196815 -0.666448
5.880000000 -0.21313 -0.661386
5.890000000 -0.229181 -0.656032
5.900000000 -0.245078 -0.650366
5.910000000 -0.26064 -0.644397
5.920000000 -0.275966 -0.638132
5.930000000 -0.290984 -0.631626
5.940000000 -0.30576 -0.624761
5.950000000 -0.320255 -0.617593
5.960000000 -0.334463 -0.610116
5.970000000 -0.348352 -0.602236
5.980000000 -0.362053 -0.594003
5.990000000 -0.375492 -0.585305
6.000000000 -0.388737 -0.576239
6.010000000 -0.401756 -0.566827
6.020000000 -0.414644 -0.556993
6.030000000 -0.427362 -0.546846
6.040000000 -0.439902 -0.536316
6.050000000 -0.452178 -0.5254
6.060000000 -0.464318 -0.514148
6.070000000 -0.476166 -0.502528
6.080000000 -0.487856 -0.490582
6.090000000 -0.499254 -0.478241
6.100000000 -0.510453 -0.465575
6.110000000 -0.521384 -0.452522
6.120000000 -0.532012 -0.439216
6.130000000 -0.542395 -0.425579
6.140000000 -0.552488 -0.411745
6.150000000 -0.562234 -0.397693
6.160000000 -0.571617 -0.383407
6.170000000 -0.580649 -0.368946
6.180000000 -0.589406 -0.354254
6.190000000 -0.597624 -0.339516
6.200000000 -0.605607 -0.324708
6.210000000 -0.613158 -0.309701
6.220000000 -0.62029 -0.294643
6.230000000 -0.627191 -0.279602
6.240000000 -0.633651 -0.264447
6.250000000 -0.639734 -0.24935
6.260000000 -0.645462 -0.234293
6.270000000 -0.650775 -0.219174
6.280000000 -0.655637 -0.204116
6.290000000 -0.660142 -0.188994
6.300000000 -0.664143 -0.17388
6.310000000 -0.667684 -0.158673
6.320000000 -0.670825 -0.143385
6.330000000 -0.673551 -0.127976
6.340000000 -0.675996 -0.112445
6.350000000 -0.678084 -0.096893
6.360000000 -0.679791 -0.081111
6.370000000 -0.681211 -0.065329
6.380000000 -0.68221 -0.049331
6.390000000 -0.682888 -0.033284
6.400000000 -0.683166 -0.017146
6.410000000 -0.682973 -0.00091
6.420000000 -0.68235 0.0154
6.430000000 -0.681237 0.031762
6.440000000 -0.679704 0.048145
6.450000000 -0.677686 0.064562
6.460000000 -0.675207 0.081036
6.470000000 -0.672427 0.097484
6.480000000 -0.669225 0.113952
6.490000000 -0.665701 0.130435
6.500000000 -0.661921 0.14676
6.510000000 -0.657849 0.162893
6.520000000 -0.653459 0.178842
6.530000000 -0.648743 0.194493
6.540000000 -0.643755 0.209913
6.550000000 -0.638285 0.224998
6.560000000 -0.632395 0.239859
6.570000000 -0.62613 0.254525
6.580000000 -0.619506 0.268978
6.590000000 -0.612456 0.28327
6.600000000 -0.605117 0.297467
6.610000000 -0.597469 0.311611
6.620000000 -0.589619 0.325544
6.630000000 -0.581468 0.339361
6.640000000 -0.573132 0.35305
6.650000000 -0.564535 0.366492
6.660000000 -0.555617 0.379776
6.670000000 -0.546379 0.392735
6.680000000 -0.536859 0.405423
6.690000000 -0.526965 0.417861
6.700000000 -0.516675 0.430058
6.710000000 -0.506017 0.441953
6.720000000 -0.495046 0.453691
6.730000000 -0.483707 0.46527
6.740000000 -0.472119 0.476658
6.750000000 -0.460346 0.487806
6.760000000 -0.448461 0.498891
6.770000000 -0.436425 0.509616
6.780000000 -0.42429 0.520072
6.790000000 -0.412006 0.530015
6.800000000 -0.399586 0.539531
6.810000000 -0.387013 0.548632
6.820000000 -0.374077 0.557261
6.830000000 -0.360917 0.565453
6.840000000 -0.347473 0.573317
6.850000000 -0.333839 0.580808
6.860000000 -0.319933 0.588029
6.870000000 -0.305759 0.59494
6.880000000 -0.291487 0.601637
6.890000000 -0.277099 0.608146
6.900000000 -0.262564 0.614322
6.910000000 -0.247996 0.620283
6.920000000 -0.233338 0.625768
6.930000000 -0.218503 0.630747
6.940000000 -0.203637 0.63528
6.950000000 -0.1886 0.639464
6.960000000 -0.173245 0.643065
6.970000000 -0.157763 0.646232
6.980000000 -0.142111 0.649075
6.990000000 -0.12624 0.651586
7.000000000 -0.110337 0.653926
7.010000000 -0.094288 0.65594
7.020000000 -0.078222 0.657791
7.030000000 -0.062161 0.659444
7.040000000 -0.046213 0.660704
7.050000000 -0.030329 0.66171
7.060000000 -0.014553 0.662266
7.070000000 0.001128 0.662454
7.080000000 0.01675 0.662256
7.090000000 0.032375 0.661597
7.100000000 0.047909 0.660563
7.110000000 0.063449 0.659178
7.120000000 0.078962 0.657482
7.130000000 0.094547 0.655472
7.140000000 0.109961 0.653245
7.150000000 0.125322 0.650821
7.160000000 0.140524 0.648119
7.170000000 0.155549 0.645195
7.180000000 0.17032 0.641975
7.190000000 0.184885 0.63829
7.200000000 0.199267 0.6343
7.210000000 0.213358 0.629798
7.220000000 0.22734 0.624837
7.230000000 0.241136 0.619487
7.240000000 0.254906 0.613664
7.250000000 0.26853 0.607517
7.260000000 0.282078 0.600996
7.270000000 0.295542 0.594229
7.280000000 0.308938 0.58711
7.290000000 0.322062 0.579741
7.300000000 0.335108 0.572031
7.310000000 0.34791 0.563984
7.320000000 0.3606 0.555653
7.330000000 0.372974 0.546983
7.340000000 0.385261 0.53783
7.350000000 0.397276 0.528484
7.360000000 0.409106 0.518675
7.370000000 0.420898 0.508599
7.380000000 0.432398 0.498229
7.390000000 0.443819 0.487629
7.400000000 0.45507 0.476771
7.410000000 0.466083 0.465721
7.420000000 0.47694 0.454614
7.430000000 0.487575 0.44322
7.440000000 0.497892 0.431793
7.450000000 0.507918 0.420138
7.460000000 0.517626 0.408311
7.470000000 0.526916 0.396338
7.480000000 0.535951 0.384066
7.490000000 0.544611 0.371648
7.500000000 0.553007 0.359074
7.510000000 0.561155 0.346238
7.520000000 0.568962 0.333366
7.530000000 0.57646 0.320282
7.540000000 0.583678 0.307107
7.550000000 0.59054 0.293786
7.560000000 0.597123 0.280373
7.570000000 0.603303 0.266804
7.580000000 0.609189 0.253077
7.590000000 0.614721 0.239208
7.600000000 0.61986 0.22528
7.610000000 0.624723 0.211112
7.620000000 0.629202 0.196895
7.630000000 0.633404 0.182539
7.640000000 0.637276 0.168051
7.650000000 0.640845 0.153453
7.660000000 0.644113 0.138826
7.670000000 0.647002 0.124133
7.680000000 0.64964 0.109354
7.690000000 0.651887 0.094588
7.700000000 0.653825 0.079674
7.710000000 0.655353 0.064888
7.720000000 0.656496 0.049957
7.730000000 0.657303 0.035006
7.740000000 0.65775 0.019997
7.750000000 0.657844 0.005004
7.760000000 0.657516 -0.010086
7.770000000 0.65682 -0.025218
7.780000000 0.655812 -0.040317
7.790000000 0.654331 -0.055426
7.800000000 0.652514 -0.070604
7.810000000 0.650326 -0.08574
7.820000000 0.647869 -0.1009
7.830000000 0.644911 -0.116087
7.840000000 0.64168 -0.131254
7.850000000 0.638073 -0.146357
7.860000000 0.634197 -0.161425
7.870000000 0.629959 -0.176414
7.880000000 0.625461 -0.191311
7.890000000 0.620697 -0.206034
7.900000000 0.615687 -0.220594
7.910000000 0.610317 -0.234942
7.920000000 0.604708 -0.249094
7.930000000 0.5988 -0.262972
7.940000000 0.592594 -0.276621
7.950000000 0.586121 -0.29004
7.960000000 0.579347 -0.303192
7.970000000 0.57229 -0.31623
7.980000000 0.565071 -0.329122
7.990000000 0.557438 -0.341713
8.000000000 0.549623 -0.354098
8.010000000 0.541485 -0.366277
8.020000000 0.53304 -0.378199
8.030000000 0.524196 -0.389856
8.040000000 0.515014 -0.401358
8.050000000 0.505378 -0.412511
8.060000000 0.495354 -0.423491
8.070000000 0.484805 -0.434331
8.080000000 0.47394 -0.444984
8.090000000 0.462551 -0.455505
8.100000000 0.450735 -0.465761
8.110000000 0.438691 -0.476005
8.120000000 0.426268 -0.485951
8.130000000 0.41359 -0.495755
8.140000000 0.400661 -0.50534
8.150000000 0.38761 -0.514628
8.160000000 0.374442 -0.52359
8.170000000 0.361195 -0.532149
8.180000000 0.348003 -0.540171
8.190000000 0.334731 -0.54792
8.200000000 0.32164 -0.555209
8.210000000 0.30862 -0.562249
8.220000000 0.295733 -0.569167
8.230000000 0.282936 -0.575971
8.240000000 0.27002 -0.582815
8.250000000 0.257101 -0.589671
8.260000000 0.2441 -0.596292
8.270000000 0.230881 -0.602718
8.280000000 0.217582 -0.608737
8.290000000 0.204113 -0.614303
8.300000000 0.190486 -0.61919
8.310000000 0.176701 -0.62364
8.320000000 0.162679 -0.627544
8.330000000 0.148451 -0.630907
8.340000000 0.133873 -0.633839
8.350000000 0.119067 -0.636282
8.360000000 0.104032 -0.638394
8.370000000 0.088746 -0.640125
8.380000000 0.073306 -0.641599
8.390000000 0.057788 -0.642701
8.400000000 0.042061 -0.643457
8.410000000 0.02635 -0.643835
8.420000000 0.010612 -0.643834
8.430000000 -0.005075 -0.64349
8.440000000 -0.020733 -0.642566
8.450000000 -0.036394 -0.641144
8.460000000 -0.052016 -0.639343
8.470000000 -0.067574 -0.63713
8.480000000 -0.083232 -0.63457
8.490000000 -0.098809 -0.631759
8.500000000 -0.114279 -0.628682
