! LibreCAL 5mOUNstcbC0A set FACTORY P1_SHORT
# GHz S RI R 50
0.000009000 -0.717613 -0.001158
0.000010000 -0.71763 -0.000971
0.000011000 -0.717708 -0.000853
0.000012000 -0.7177 -0.000808
0.000013000 -0.717765 -0.000703
0.000014000 -0.717806 -0.000662
0.000015000 -0.717746 -0.000551
0.000016000 -0.717784 -0.000399
0.000017000 -0.717882 -0.000456
0.000018000 -0.717719 -0.000444
0.000019000 -0.717812 -0.000402
0.000020000 -0.717851 -0.000394
0.000021000 -0.717837 -0.000355
0.000022000 -0.717806 -0.000326
0.000023000 -0.717835 -0.000264
0.000024000 -0.717828 -0.000314
0.000025000 -0.717861 -0.000362
0.000026000 -0.717831 -0.000247
0.000027000 -0.717841 -0.000299
0.000028000 -0.717823 -0.000148
0.000029000 -0.717841 -0.000159
0.000030000 -0.717811 -0.000138
0.000031000 -0.717877 -0.000155
0.000032000 -0.717839 -5e-05
0.000033000 -0.717879 -0.000175
0.000034000 -0.717823 -0.000117
0.000035000 -0.717832 -0.0001
0.000036000 -0.717797 -9e-05
0.000037000 -0.717901 -0.000123
0.000038000 -0.717822 -6.8e-05
0.000039000 -0.717856 -0.000124
0.000040000 -0.71784 -5.3e-05
0.000041000 -0.717897 -1.7e-05
0.000042000 -0.717875 -4.7e-05
0.000043000 -0.717851 -9.3e-05
0.000044000 -0.717875 -9.2e-05
0.000045000 -0.717812 2e-06
0.000046000 -0.717854 -5.9e-05
0.000047000 -0.717877 -2e-06
0.000048000 -0.717858 -2.4e-05
0.000049000 -0.717834 3e-06
0.000050000 -0.717908 3.9e-05
0.000051000 -0.717791 -6.8e-05
0.000052000 -0.717889 7e-06
0.000053000 -0.717869 -4.9e-05
0.000054000 -0.71788 4.8e-05
0.000055000 -0.717792 1.2e-05
0.000056000 -0.717794 4e-05
0.000057000 -0.717848 4.6e-05
0.000058000 -0.717821 3.5e-05
0.000059000 -0.717875 6.2e-05
0.000060000 -0.717855 0.000103
0.000061000 -0.717798 1.9e-05
0.000062000 -0.717872 4e-05
0.000063000 -0.717752 0.000106
0.000064000 -0.717831 6.6e-05
0.000065000 -0.717827 8.4e-05
0.000066000 -0.717903 6.8e-05
0.000067000 -0.717826 0.000127
0.000068000 -0.717813 8.1e-05
0.000069000 -0.717796 0.000111
0.000070000 -0.717845 5e-05
0.000071000 -0.717824 0.000121
0.000072000 -0.717879 9.2e-05
0.000073000 -0.717877 8.5e-05
0.000074000 -0.717866 0.000109
0.000075000 -0.717828 0.000134
0.000076000 -0.717809 0.000139
0.000077000 -0.717775 9e-05
0.000078000 -0.717831 0.000114
0.000079000 -0.717854 6.3e-05
0.000080000 -0.717822 0.000107
0.000081000 -0.717792 0.000137
0.000082000 -0.717827 7.9e-05
0.000083000 -0.717823 0.000165
0.000084000 -0.717802 0.000111
0.000085000 -0.717861 0.000128
0.000086000 -0.717815 0.000119
0.000087000 -0.717892 0.000138
0.000088000 -0.717868 0.000171
0.000089000 -0.717858 0.000157
0.000090000 -0.717841 0.000243
0.000091000 -0.717814 0.000173
0.000092000 -0.71786 0.000231
0.000093000 -0.717839 0.000163
0.000094000 -0.717882 0.000248
0.000095000 -0.717855 0.00013
0.000096000 -0.717834 0.000214
0.000097000 -0.717807 0.000195
0.000098000 -0.717807 0.000137
0.000099000 -0.717883 0.000192
0.000100000 -0.717834 0.000142
0.000110000 -0.717845 0.000247
0.000120000 -0.71786 0.00028
0.000130000 -0.717727 0.000266
0.000140000 -0.717809 0.000283
0.000150000 -0.717813 0.000353
0.000160000 -0.717834 0.00036
0.000170000 -0.717761 0.000448
0.000180000 -0.717769 0.000421
0.000190000 -0.717767 0.000422
0.000200000 -0.7178 0.000529
0.000210000 -0.717786 0.000494
0.000220000 -0.71779 0.000512
0.000230000 -0.717826 0.000547
0.000240000 -0.717721 0.000589
0.000250000 -0.717807 0.000545
0.000260000 -0.717764 0.00061
0.000270000 -0.717768 0.000652
0.000280000 -0.717782 0.000622
0.000290000 -0.717736 0.000659
0.000300000 -0.717791 0.00067
0.000310000 -0.717785 0.000722
0.000320000 -0.717801 0.000724
0.000330000 -0.717819 0.000762
0.000340000 -0.717746 0.000838
0.000350000 -0.717794 0.000803
0.000360000 -0.71781 0.000851
0.000370000 -0.717748 0.000837
0.000380000 -0.717696 0.000811
0.000390000 -0.717753 0.000876
0.000400000 -0.717818 0.000942
0.000410000 -0.717696 0.000965
0.000420000 -0.717693 0.00091
0.000430000 -0.717717 0.000991
0.000440000 -0.7177 0.000952
0.000450000 -0.717748 0.001034
0.000460000 -0.717734 0.001022
0.000470000 -0.717733 0.001071
0.000480000 -0.717739 0.001078
0.000490000 -0.717795 0.001075
0.000500000 -0.717667 0.001099
0.000510000 -0.717713 0.001146
0.000520000 -0.717766 0.001179
0.000530000 -0.717725 0.001154
0.000540000 -0.717744 0.001195
0.000550000 -0.717783 0.001224
0.000560000 -0.717701 0.001283
0.000570000 -0.717757 0.001347
0.000580000 -0.717751 0.001316
0.000590000 -0.717672 0.001281
0.000600000 -0.717756 0.001307
0.000610000 -0.717738 0.001387
0.000620000 -0.717701 0.001398
0.000630000 -0.717671 0.001351
0.000640000 -0.71772 0.001441
0.000650000 -0.71775 0.001423
0.000660000 -0.717756 0.001465
0.000670000 -0.717716 0.001461
0.000680000 -0.71777 0.001473
0.000690000 -0.717733 0.001524
0.000700000 -0.71763 0.001561
0.000710000 -0.717738 0.001536
0.000720000 -0.717734 0.001569
0.000730000 -0.717751 0.001627
0.000740000 -0.717706 0.001619
0.000750000 -0.717713 0.001662
0.000760000 -0.717699 0.001632
0.000770000 -0.717665 0.001729
0.000780000 -0.717718 0.001678
0.000790000 -0.717747 0.001754
0.000800000 -0.717663 0.001689
0.000810000 -0.717664 0.001818
0.000820000 -0.717646 0.001764
0.000830000 -0.717708 0.001856
0.000840000 -0.717717 0.001756
0.000850000 -0.717739 0.001821
0.000860000 -0.717655 0.00188
0.000870000 -0.717726 0.001886
0.000880000 -0.717705 0.001941
0.000890000 -0.717709 0.001975
0.000900000 -0.717713 0.001949
0.000910000 -0.717664 0.001943
0.000920000 -0.71774 0.001979
0.000930000 -0.717681 0.002022
0.000940000 -0.717696 0.002097
0.000950000 -0.717746 0.002002
0.000960000 -0.717714 0.002092
0.000970000 -0.717703 0.002069
0.000980000 -0.71772 0.002137
0.000990000 -0.717711 0.002241
0.001000000 -0.717699 0.002187
0.001100000 -0.717638 0.002358
0.001200000 -0.717752 0.002639
0.001300000 -0.717605 0.002943
0.001400000 -0.717637 0.003075
0.001500000 -0.717638 0.003265
0.001600000 -0.71769 0.003428
0.001700000 -0.717664 0.003656
0.001800000 -0.71769 0.003885
0.001900000 -0.717679 0.004074
0.002000000 -0.717647 0.004302
0.002100000 -0.717648 0.004505
0.002200000 -0.717599 0.004675
0.002300000 -0.71762 0.004905
0.002400000 -0.71764 0.005169
0.002500000 -0.717609 0.005332
0.002600000 -0.717632 0.005589
0.002700000 -0.717622 0.005803
0.002800000 -0.717584 0.005972
0.002900000 -0.71759 0.006181
0.003000000 -0.717547 0.00641
0.003100000 -0.717589 0.00663
0.003200000 -0.717481 0.006831
0.003300000 -0.717564 0.007024
0.003400000 -0.717471 0.007198
0.003500000 -0.717547 0.007485
0.003600000 -0.717618 0.007706
0.003700000 -0.717524 0.007878
0.003800000 -0.717512 0.008132
0.003900000 -0.717598 0.008379
0.004000000 -0.717472 0.008505
0.004100000 -0.717511 0.008722
0.004200000 -0.717504 0.008932
0.004300000 -0.717426 0.009172
0.004400000 -0.717407 0.009287
0.004500000 -0.717428 0.009599
0.004600000 -0.717408 0.009744
0.004700000 -0.717396 0.010005
0.004800000 -0.717393 0.010165
0.004900000 -0.717387 0.010421
0.005000000 -0.717395 0.0106
0.005100000 -0.7174 0.01075
0.005200000 -0.71739 0.01105
0.005300000 -0.717403 0.011181
0.005400000 -0.717375 0.011386
0.005500000 -0.717324 0.011681
0.005600000 -0.717346 0.011858
0.005700000 -0.717318 0.012076
0.005800000 -0.717267 0.01222
0.005900000 -0.717275 0.012412
0.006000000 -0.717301 0.012666
0.006100000 -0.717342 0.012866
0.006200000 -0.717268 0.013073
0.006300000 -0.717298 0.013295
0.006400000 -0.717259 0.013491
0.006500000 -0.717232 0.013711
0.006600000 -0.717254 0.01391
0.006700000 -0.717225 0.014114
0.006800000 -0.717241 0.014295
0.006900000 -0.717245 0.01452
0.007000000 -0.717201 0.01475
0.007100000 -0.71722 0.014961
0.007200000 -0.717164 0.015123
0.007300000 -0.717172 0.01536
0.007400000 -0.717145 0.015558
0.007500000 -0.717163 0.015763
0.007600000 -0.717124 0.015974
0.007700000 -0.717135 0.016168
0.007800000 -0.717124 0.016405
0.007900000 -0.717121 0.016596
0.008000000 -0.717107 0.016827
0.008100000 -0.717053 0.017023
0.008200000 -0.717079 0.017236
0.008300000 -0.717034 0.017431
0.008400000 -0.717017 0.017628
0.008500000 -0.717018 0.017853
0.008600000 -0.717016 0.018025
0.008700000 -0.716963 0.018257
0.008800000 -0.717008 0.018463
0.008900000 -0.71698 0.018645
0.009000000 -0.717017 0.018864
0.009100000 -0.716971 0.019107
0.009200000 -0.716957 0.019252
0.009300000 -0.716922 0.019496
0.009400000 -0.716929 0.019684
0.009500000 -0.716938 0.019853
0.009600000 -0.716924 0.020106
0.009700000 -0.716905 0.020286
0.009800000 -0.716881 0.020456
0.009900000 -0.71689 0.020712
0.010000000 -0.716835 0.020877
0.011000000 -0.716721 0.022977
0.012000000 -0.716596 0.024981
0.013000000 -0.716493 0.027034
0.014000000 -0.716316 0.029106
0.015000000 -0.716186 0.031105
0.016000000 -0.716001 0.033095
0.017000000 -0.715886 0.035152
0.018000000 -0.715671 0.03717
0.019000000 -0.715544 0.039213
0.020000000 -0.715383 0.041179
0.021000000 -0.715194 0.043206
0.022000000 -0.715024 0.045235
0.023000000 -0.714832 0.047239
0.024000000 -0.714692 0.049247
0.025000000 -0.7145 0.051263
0.026000000 -0.714266 0.053269
0.027000000 -0.714074 0.055271
0.028000000 -0.71389 0.057279
0.029000000 -0.71366 0.059246
0.030000000 -0.713451 0.061288
0.031000000 -0.713211 0.063259
0.032000000 -0.712978 0.065283
0.033000000 -0.712728 0.067279
0.034000000 -0.712488 0.069259
0.035000000 -0.712256 0.071261
0.036000000 -0.711953 0.073213
0.037000000 -0.711735 0.075218
0.038000000 -0.711507 0.077201
0.039000000 -0.711207 0.079183
0.040000000 -0.710933 0.081207
0.041000000 -0.7106 0.083178
0.042000000 -0.710344 0.085131
0.043000000 -0.710029 0.087155
0.044000000 -0.709734 0.089105
0.045000000 -0.709466 0.091105
0.046000000 -0.709102 0.093046
0.047000000 -0.708832 0.095021
0.048000000 -0.708496 0.097013
0.049000000 -0.70814 0.098981
0.050000000 -0.707839 0.100964
0.051000000 -0.707492 0.102945
0.052000000 -0.707176 0.104893
0.053000000 -0.706786 0.106878
0.054000000 -0.706438 0.108839
0.055000000 -0.706113 0.110801
0.056000000 -0.705686 0.112761
0.057000000 -0.705397 0.114722
0.058000000 -0.705012 0.116666
0.059000000 -0.704577 0.118627
0.060000000 -0.704195 0.120609
0.061000000 -0.703842 0.122548
0.062000000 -0.703401 0.124494
0.063000000 -0.703025 0.126434
0.064000000 -0.702594 0.128377
0.065000000 -0.702263 0.130277
0.066000000 -0.70181 0.132232
0.067000000 -0.701365 0.134165
0.068000000 -0.700962 0.136141
0.069000000 -0.700599 0.138118
0.070000000 -0.700054 0.139982
0.071000000 -0.699617 0.141925
0.072000000 -0.699222 0.143883
0.073000000 -0.698776 0.145772
0.074000000 -0.698237 0.147734
0.075000000 -0.697813 0.149574
0.076000000 -0.697294 0.151535
0.077000000 -0.696891 0.153478
0.078000000 -0.696369 0.155377
0.079000000 -0.695912 0.157275
0.080000000 -0.695431 0.159206
0.081000000 -0.694916 0.161113
0.082000000 -0.694382 0.163007
0.083000000 -0.693841 0.16498
0.084000000 -0.693322 0.166899
0.085000000 -0.692889 0.16878
0.086000000 -0.69232 0.170683
0.087000000 -0.691823 0.172586
0.088000000 -0.691276 0.174475
0.089000000 -0.690731 0.176409
0.090000000 -0.690215 0.178288
0.091000000 -0.689677 0.180255
0.092000000 -0.689143 0.182098
0.093000000 -0.68859 0.183967
0.094000000 -0.688059 0.185818
0.095000000 -0.687432 0.18777
0.096000000 -0.686876 0.189629
0.097000000 -0.686317 0.191582
0.098000000 -0.685763 0.193352
0.099000000 -0.685118 0.195305
0.100000000 -0.68459 0.197165
0.110000000 -0.678453 0.215863
0.120000000 -0.671849 0.234234
0.130000000 -0.664773 0.252441
0.140000000 -0.657193 0.270412
0.150000000 -0.649249 0.288105
0.160000000 -0.64089 0.30546
0.170000000 -0.632051 0.322338
0.180000000 -0.622796 0.33925
0.190000000 -0.613099 0.355726
0.200000000 -0.60307 0.371831
0.210000000 -0.592679 0.387646
0.220000000 -0.581806 0.403177
0.230000000 -0.570659 0.4184
0.240000000 -0.559086 0.433322
0.250000000 -0.547233 0.447886
0.260000000 -0.535027 0.462071
0.270000000 -0.522497 0.47595
0.280000000 -0.509759 0.489438
0.290000000 -0.496571 0.502599
0.300000000 -0.483142 0.515376
0.310000000 -0.469454 0.527598
0.320000000 -0.455272 0.539605
0.330000000 -0.440978 0.551261
0.340000000 -0.426361 0.562481
0.350000000 -0.411608 0.573225
0.360000000 -0.396412 0.583807
0.370000000 -0.381078 0.594016
0.380000000 -0.365728 0.603719
0.390000000 -0.350048 0.613085
0.400000000 -0.33412 0.622042
0.410000000 -0.31819 0.630609
0.420000000 -0.302017 0.638623
0.430000000 -0.285767 0.64621
0.440000000 -0.269337 0.65325
0.450000000 -0.252729 0.659909
0.460000000 -0.235843 0.666207
0.470000000 -0.218911 0.672019
0.480000000 -0.201842 0.677401
0.490000000 -0.184615 0.68235
0.500000000 -0.16733 0.686979
0.510000000 -0.149922 0.691065
0.520000000 -0.132458 0.69483
0.530000000 -0.114969 0.698123
0.540000000 -0.097405 0.700961
0.550000000 -0.07984 0.703378
0.560000000 -0.062214 0.705248
0.570000000 -0.044605 0.706708
0.580000000 -0.02686 0.707715
0.590000000 -0.009219 0.708272
0.600000000 0.008468 0.708387
0.610000000 0.026119 0.708193
0.620000000 0.043834 0.707588
0.630000000 0.061347 0.706452
0.640000000 0.078879 0.705177
0.650000000 0.09626 0.703416
0.660000000 0.113398 0.701357
0.670000000 0.130498 0.698733
0.680000000 0.147461 0.695882
0.690000000 0.164264 0.692457
0.700000000 0.180817 0.68864
0.710000000 0.197272 0.684429
0.720000000 0.21357 0.679773
0.730000000 0.229772 0.674734
0.740000000 0.245866 0.669256
0.750000000 0.261811 0.663454
0.760000000 0.277578 0.657279
0.770000000 0.293189 0.650743
0.780000000 0.308596 0.643855
0.790000000 0.323838 0.636615
0.800000000 0.338829 0.629052
0.810000000 0.353712 0.621065
0.820000000 0.368331 0.612744
0.830000000 0.382743 0.603942
0.840000000 0.397007 0.594963
0.850000000 0.411028 0.585455
0.860000000 0.424748 0.575611
0.870000000 0.438335 0.565625
0.880000000 0.451725 0.555179
0.890000000 0.464963 0.544551
0.900000000 0.477893 0.533622
0.910000000 0.490524 0.522464
0.920000000 0.503018 0.511008
0.930000000 0.515043 0.499414
0.940000000 0.526853 0.487572
0.950000000 0.538275 0.475426
0.960000000 0.549308 0.463138
0.970000000 0.560057 0.450457
0.980000000 0.570439 0.437586
0.990000000 0.580563 0.424539
1.000000000 0.590292 0.411258
1.010000000 0.599782 0.397671
1.020000000 0.608936 0.384058
1.030000000 0.617712 0.370182
1.040000000 0.626205 0.356133
1.050000000 0.634381 0.341896
1.060000000 0.642198 0.327594
1.070000000 0.649578 0.313096
1.080000000 0.656749 0.298376
1.090000000 0.663455 0.283543
1.100000000 0.66974 0.268609
1.110000000 0.675763 0.253449
1.120000000 0.681276 0.238116
1.130000000 0.686478 0.22274
1.140000000 0.691389 0.207182
1.150000000 0.696047 0.191497
1.160000000 0.700308 0.175772
1.170000000 0.704187 0.159922
1.180000000 0.707674 0.143997
1.190000000 0.710762 0.128033
1.200000000 0.713535 0.112224
1.210000000 0.716017 0.096203
1.220000000 0.71803 0.080113
1.230000000 0.71973 0.063964
1.240000000 0.720925 0.047785
1.250000000 0.721807 0.031543
1.260000000 0.722358 0.015258
1.270000000 0.722526 -0.001062
1.280000000 0.722315 -0.01732
1.290000000 0.721741 -0.033609
1.300000000 0.720881 -0.049855
1.310000000 0.719595 -0.066113
1.320000000 0.717974 -0.082248
1.330000000 0.716066 -0.098317
1.340000000 0.71368 -0.11444
1.350000000 0.711045 -0.130327
1.360000000 0.70795 -0.146219
1.370000000 0.704514 -0.161943
1.380000000 0.700804 -0.177687
1.390000000 0.696751 -0.1932
1.400000000 0.692381 -0.208721
1.410000000 0.687597 -0.223996
1.420000000 0.682536 -0.239174
1.430000000 0.67709 -0.254188
1.440000000 0.671331 -0.269029
1.450000000 0.665257 -0.283668
1.460000000 0.658899 -0.298136
1.470000000 0.65213 -0.312486
1.480000000 0.64508 -0.326601
1.490000000 0.637658 -0.340575
1.500000000 0.629886 -0.354297
1.510000000 0.621822 -0.367937
1.520000000 0.613433 -0.381376
1.530000000 0.604721 -0.394631
1.540000000 0.595753 -0.407655
1.550000000 0.586431 -0.420498
1.560000000 0.576853 -0.433175
1.570000000 0.566923 -0.445603
1.580000000 0.556793 -0.457854
1.590000000 0.546344 -0.469867
1.600000000 0.535584 -0.481732
1.610000000 0.524626 -0.493326
1.620000000 0.513434 -0.504745
1.630000000 0.501985 -0.515838
1.640000000 0.490275 -0.526748
1.650000000 0.478326 -0.537311
1.660000000 0.466218 -0.547683
1.670000000 0.453805 -0.557679
1.680000000 0.441211 -0.567376
1.690000000 0.428387 -0.576803
1.700000000 0.415374 -0.585866
1.710000000 0.402105 -0.594679
1.720000000 0.388617 -0.603143
1.730000000 0.374935 -0.611258
1.740000000 0.36106 -0.619103
1.750000000 0.346991 -0.626594
1.760000000 0.332724 -0.633797
1.770000000 0.318305 -0.640651
1.780000000 0.303677 -0.647226
1.790000000 0.288968 -0.653384
1.800000000 0.274056 -0.659234
1.810000000 0.258987 -0.664758
1.820000000 0.243777 -0.669918
1.830000000 0.228513 -0.674732
1.840000000 0.213001 -0.679241
1.850000000 0.197473 -0.683399
1.860000000 0.181906 -0.68724
1.870000000 0.166146 -0.690783
1.880000000 0.150378 -0.693949
1.890000000 0.134617 -0.696867
1.900000000 0.118828 -0.699397
1.910000000 0.103049 -0.701519
1.920000000 0.087195 -0.703351
1.930000000 0.071382 -0.704767
1.940000000 0.05556 -0.705772
1.950000000 0.0398 -0.706357
1.960000000 0.024045 -0.706507
1.970000000 0.008242 -0.706286
1.980000000 -0.007575 -0.705642
1.990000000 -0.023387 -0.704694
2.000000000 -0.039109 -0.70332
2.010000000 -0.054877 -0.701559
2.020000000 -0.070609 -0.699408
2.030000000 -0.086373 -0.69691
2.040000000 -0.101983 -0.694008
2.050000000 -0.117623 -0.690765
2.060000000 -0.133184 -0.687075
2.070000000 -0.148726 -0.683039
2.080000000 -0.164165 -0.678561
2.090000000 -0.179483 -0.6737
2.100000000 -0.194881 -0.668479
2.110000000 -0.210224 -0.662981
2.120000000 -0.225379 -0.657115
2.130000000 -0.240635 -0.65077
2.140000000 -0.255687 -0.644251
2.150000000 -0.270713 -0.637455
2.160000000 -0.285475 -0.630277
2.170000000 -0.30011 -0.622819
2.180000000 -0.314401 -0.615005
2.190000000 -0.328692 -0.606891
2.200000000 -0.342582 -0.59846
2.210000000 -0.356274 -0.589652
2.220000000 -0.369734 -0.580444
2.230000000 -0.382918 -0.570898
2.240000000 -0.395882 -0.561058
2.250000000 -0.40859 -0.550875
2.260000000 -0.421052 -0.540346
2.270000000 -0.433311 -0.529624
2.280000000 -0.445273 -0.518592
2.290000000 -0.456971 -0.507208
2.300000000 -0.468428 -0.495614
2.310000000 -0.479447 -0.483736
2.320000000 -0.490206 -0.471665
2.330000000 -0.500692 -0.459221
2.340000000 -0.510894 -0.446518
2.350000000 -0.52074 -0.433561
2.360000000 -0.530225 -0.420318
2.370000000 -0.53963 -0.40673
2.380000000 -0.548558 -0.392936
2.390000000 -0.557334 -0.378915
2.400000000 -0.565753 -0.364734
2.410000000 -0.573945 -0.350297
2.420000000 -0.581841 -0.33568
2.430000000 -0.589381 -0.320876
2.440000000 -0.596497 -0.305964
2.450000000 -0.603298 -0.290849
2.460000000 -0.609642 -0.275644
2.470000000 -0.615614 -0.260107
2.480000000 -0.621119 -0.244469
2.490000000 -0.62627 -0.228781
2.500000000 -0.630985 -0.212821
2.510000000 -0.635423 -0.196823
2.520000000 -0.639305 -0.180648
2.530000000 -0.642897 -0.164462
2.540000000 -0.646083 -0.148171
2.550000000 -0.648921 -0.131833
2.560000000 -0.651357 -0.115467
2.570000000 -0.653329 -0.09907
2.580000000 -0.654934 -0.082783
2.590000000 -0.65601 -0.066414
2.600000000 -0.656656 -0.050051
2.610000000 -0.656851 -0.033663
2.620000000 -0.656571 -0.017284
2.630000000 -0.655918 -0.000876
2.640000000 -0.654884 0.015535
2.650000000 -0.653487 0.031831
2.660000000 -0.651634 0.048181
2.670000000 -0.649443 0.064668
2.680000000 -0.646838 0.080935
2.690000000 -0.643634 0.097182
2.700000000 -0.640014 0.113313
2.710000000 -0.635863 0.129298
2.720000000 -0.631122 0.145106
2.730000000 -0.626066 0.160551
2.740000000 -0.620575 0.175697
2.750000000 -0.614934 0.190549
2.760000000 -0.609218 0.20527
2.770000000 -0.603267 0.220083
2.780000000 -0.597147 0.234949
2.790000000 -0.590653 0.249835
2.800000000 -0.583745 0.264669
2.810000000 -0.576419 0.279495
2.820000000 -0.568732 0.294098
2.830000000 -0.560646 0.308464
2.840000000 -0.552203 0.322691
2.850000000 -0.543368 0.336699
2.860000000 -0.534168 0.350374
2.870000000 -0.524625 0.363791
2.880000000 -0.514858 0.377009
2.890000000 -0.504555 0.38994
2.900000000 -0.494148 0.402522
2.910000000 -0.483407 0.414886
2.920000000 -0.472387 0.426928
2.930000000 -0.460998 0.438632
2.940000000 -0.449444 0.449999
2.950000000 -0.437608 0.461095
2.960000000 -0.425503 0.471765
2.970000000 -0.41307 0.482136
2.980000000 -0.400382 0.492161
2.990000000 -0.387343 0.501756
3.000000000 -0.374088 0.511146
3.010000000 -0.360589 0.520148
3.020000000 -0.346746 0.528754
3.030000000 -0.332686 0.537046
3.040000000 -0.318345 0.545025
3.050000000 -0.303896 0.552716
3.060000000 -0.289127 0.560027
3.070000000 -0.274268 0.566933
3.080000000 -0.259178 0.573511
3.090000000 -0.243962 0.579775
3.100000000 -0.228606 0.585602
3.110000000 -0.213112 0.591099
3.120000000 -0.197445 0.596237
3.130000000 -0.181814 0.600974
3.140000000 -0.166009 0.605319
3.150000000 -0.150263 0.609303
3.160000000 -0.134388 0.61285
3.170000000 -0.11846 0.616071
3.180000000 -0.10255 0.618765
3.190000000 -0.08654 0.621025
3.200000000 -0.070542 0.622963
3.210000000 -0.054506 0.624427
3.220000000 -0.038473 0.625412
3.230000000 -0.022331 0.626008
3.240000000 -0.006256 0.626188
3.250000000 0.009851 0.625909
3.260000000 0.02595 0.625188
3.270000000 0.042078 0.624059
3.280000000 0.058176 0.622512
3.290000000 0.074266 0.62056
3.300000000 0.090285 0.618194
3.310000000 0.106336 0.615424
3.320000000 0.122207 0.612282
3.330000000 0.138101 0.608746
3.340000000 0.153844 0.604816
3.350000000 0.169543 0.600567
3.360000000 0.185112 0.5959
3.370000000 0.200583 0.590965
3.380000000 0.215874 0.585704
3.390000000 0.231012 0.580025
3.400000000 0.245934 0.574175
3.410000000 0.260624 0.567877
3.420000000 0.27514 0.561265
3.430000000 0.289349 0.55428
3.440000000 0.303369 0.546982
3.450000000 0.31716 0.539215
3.460000000 0.330715 0.531083
3.470000000 0.344003 0.522616
3.480000000 0.357042 0.513776
3.490000000 0.369902 0.504625
3.500000000 0.382556 0.495019
3.510000000 0.394972 0.485142
3.520000000 0.407124 0.47492
3.530000000 0.419003 0.464382
3.540000000 0.430725 0.453494
3.550000000 0.442101 0.44239
3.560000000 0.45331 0.430893
3.570000000 0.464152 0.419172
3.580000000 0.474788 0.40717
3.590000000 0.48507 0.394804
3.600000000 0.495189 0.382287
3.610000000 0.504966 0.369525
3.620000000 0.514574 0.356576
3.630000000 0.523799 0.343449
3.640000000 0.53284 0.330158
3.650000000 0.541581 0.316775
3.660000000 0.5499 0.303189
3.670000000 0.557942 0.289582
3.680000000 0.565542 0.275825
3.690000000 0.572747 0.26189
3.700000000 0.579498 0.247939
3.710000000 0.585865 0.233821
3.720000000 0.591828 0.219458
3.730000000 0.597315 0.205035
3.740000000 0.602489 0.190509
3.750000000 0.607184 0.17584
3.760000000 0.61154 0.16098
3.770000000 0.61549 0.146142
3.780000000 0.618986 0.131151
3.790000000 0.622246 0.116125
3.800000000 0.62503 0.10102
3.810000000 0.627407 0.085855
3.820000000 0.629404 0.070616
3.830000000 0.630953 0.055346
3.840000000 0.63217 0.040045
3.850000000 0.633083 0.024603
3.860000000 0.633596 0.009145
3.870000000 0.633827 -0.006315
3.880000000 0.633694 -0.021849
3.890000000 0.633425 -0.037276
3.900000000 0.632836 -0.052795
3.910000000 0.631851 -0.068071
3.920000000 0.630591 -0.083327
3.930000000 0.629035 -0.09847
3.940000000 0.627006 -0.113547
3.950000000 0.624708 -0.128486
3.960000000 0.621949 -0.143304
3.970000000 0.618759 -0.158077
3.980000000 0.615145 -0.172799
3.990000000 0.611136 -0.187352
4.000000000 0.606629 -0.201892
4.010000000 0.601797 -0.216346
4.020000000 0.596569 -0.230707
4.030000000 0.590981 -0.244981
4.040000000 0.585058 -0.25905
4.050000000 0.578791 -0.27308
4.060000000 0.572101 -0.286889
4.070000000 0.565136 -0.30044
4.080000000 0.557783 -0.313926
4.090000000 0.550041 -0.327299
4.100000000 0.541956 -0.340423
4.110000000 0.533664 -0.35336
4.120000000 0.52504 -0.366148
4.130000000 0.516153 -0.378764
4.140000000 0.50716 -0.391241
4.150000000 0.497989 -0.403433
4.160000000 0.488645 -0.415445
4.170000000 0.479195 -0.427213
4.180000000 0.469484 -0.438651
4.190000000 0.459734 -0.449812
4.200000000 0.449552 -0.460664
4.210000000 0.439257 -0.471295
4.220000000 0.428699 -0.481522
4.230000000 0.417871 -0.491435
4.240000000 0.406714 -0.501078
4.250000000 0.395283 -0.510377
4.260000000 0.383563 -0.519441
4.270000000 0.371518 -0.528098
4.280000000 0.359215 -0.536616
4.290000000 0.346601 -0.544842
4.300000000 0.333813 -0.552696
4.310000000 0.320756 -0.560306
4.320000000 0.307404 -0.567589
4.330000000 0.293882 -0.574551
4.340000000 0.280071 -0.581209
4.350000000 0.266103 -0.58757
4.360000000 0.251862 -0.593563
4.370000000 0.237401 -0.599366
4.380000000 0.22287 -0.604861
4.390000000 0.208208 -0.610084
4.400000000 0.19339 -0.615035
4.410000000 0.178625 -0.619775
4.420000000 0.163772 -0.624262
4.430000000 0.148957 -0.628401
4.440000000 0.134161 -0.6322
4.450000000 0.119307 -0.635732
4.460000000 0.104548 -0.638901
4.470000000 0.089866 -0.641666
4.480000000 0.07507 -0.644073
4.490000000 0.060279 -0.646146
4.500000000 0.045603 -0.647775
4.510000000 0.030952 -0.649001
4.520000000 0.016232 -0.649884
4.530000000 0.001592 -0.65028
4.540000000 -0.01307 -0.650332
4.550000000 -0.027754 -0.650042
4.560000000 -0.042358 -0.649295
4.570000000 -0.057041 -0.648253
4.580000000 -0.071634 -0.646733
4.590000000 -0.086296 -0.644858
4.600000000 -0.100897 -0.642639
4.610000000 -0.115521 -0.640071
4.620000000 -0.130146 -0.637128
4.630000000 -0.14475 -0.63384
4.640000000 -0.159384 -0.63021
4.650000000 -0.173991 -0.626199
4.660000000 -0.188461 -0.621972
4.670000000 -0.202955 -0.617403
4.680000000 -0.217324 -0.612545
4.690000000 -0.231583 -0.60738
4.700000000 -0.24577 -0.601896
4.710000000 -0.259786 -0.596219
4.720000000 -0.273667 -0.590159
4.730000000 -0.28739 -0.583864
4.740000000 -0.300955 -0.577338
4.750000000 -0.314335 -0.570439
4.760000000 -0.327536 -0.563332
4.770000000 -0.340435 -0.555897
4.780000000 -0.353167 -0.548213
4.790000000 -0.365639 -0.540233
4.800000000 -0.377841 -0.532009
4.810000000 -0.389818 -0.523476
4.820000000 -0.4015 -0.514644
4.830000000 -0.413047 -0.505594
4.840000000 -0.424262 -0.49627
4.850000000 -0.435211 -0.486627
4.860000000 -0.446072 -0.47684
4.870000000 -0.456561 -0.466695
4.880000000 -0.466926 -0.456331
4.890000000 -0.476982 -0.445756
4.900000000 -0.486773 -0.435
4.910000000 -0.496391 -0.423955
4.920000000 -0.505664 -0.412742
4.930000000 -0.514744 -0.401206
4.940000000 -0.523533 -0.389512
4.950000000 -0.532033 -0.377554
4.960000000 -0.540286 -0.365397
4.970000000 -0.548301 -0.35304
4.980000000 -0.556147 -0.340436
4.990000000 -0.563581 -0.327612
5.000000000 -0.570886 -0.314741
5.010000000 -0.577875 -0.301669
5.020000000 -0.584555 -0.288475
5.030000000 -0.590987 -0.275112
5.040000000 -0.597043 -0.261639
5.050000000 -0.602766 -0.248116
5.060000000 -0.60808 -0.234437
5.070000000 -0.613143 -0.220583
5.080000000 -0.617845 -0.206612
5.090000000 -0.622213 -0.192495
5.100000000 -0.626233 -0.178319
5.110000000 -0.629994 -0.164042
5.120000000 -0.633414 -0.149718
5.130000000 -0.636536 -0.135228
5.140000000 -0.639474 -0.120816
5.150000000 -0.642133 -0.106379
5.160000000 -0.644417 -0.091961
5.170000000 -0.646239 -0.077463
5.180000000 -0.647802 -0.063081
5.190000000 -0.648844 -0.048752
5.200000000 -0.649632 -0.034248
5.210000000 -0.650027 -0.019861
5.220000000 -0.649988 -0.005405
5.230000000 -0.649698 0.009131
5.240000000 -0.648998 0.023647
5.250000000 -0.648014 0.038235
5.260000000 -0.646779 0.05276
5.270000000 -0.645208 0.067168
5.280000000 -0.643379 0.081722
5.290000000 -0.641183 0.096092
5.300000000 -0.638612 0.110393
5.310000000 -0.635682 0.124685
5.320000000 -0.63239 0.138781
5.330000000 -0.628708 0.15286
5.340000000 -0.624706 0.166924
5.350000000 -0.62031 0.180896
5.360000000 -0.615573 0.194861
5.370000000 -0.610578 0.20883
5.380000000 -0.6052 0.222703
5.390000000 -0.599676 0.236489
5.400000000 -0.593878 0.250124
5.410000000 -0.587901 0.263584
5.420000000 -0.581618 0.276829
5.430000000 -0.575051 0.289723
5.440000000 -0.568146 0.302486
5.450000000 -0.560895 0.314862
5.460000000 -0.553311 0.327027
5.470000000 -0.545379 0.338878
5.480000000 -0.537229 0.350445
5.490000000 -0.528732 0.361813
5.500000000 -0.520149 0.372981
5.510000000 -0.511492 0.383904
5.520000000 -0.502698 0.394653
5.530000000 -0.493882 0.405264
5.540000000 -0.485056 0.41596
5.550000000 -0.476081 0.426585
5.560000000 -0.466802 0.437203
5.570000000 -0.45716 0.447671
5.580000000 -0.447094 0.457988
5.590000000 -0.436694 0.468026
5.600000000 -0.425739 0.477916
5.610000000 -0.414461 0.487454
5.620000000 -0.402867 0.496924
5.630000000 -0.391025 0.506122
5.640000000 -0.378885 0.515171
5.650000000 -0.366541 0.523836
5.660000000 -0.354072 0.532393
5.670000000 -0.341523 0.54062
5.680000000 -0.328813 0.548554
5.690000000 -0.315945 0.556101
5.700000000 -0.303014 0.56329
5.710000000 -0.290008 0.57019
5.720000000 -0.276768 0.576572
5.730000000 -0.263439 0.582538
5.740000000 -0.249957 0.588275
5.750000000 -0.236364 0.59354
5.760000000 -0.222596 0.598581
5.770000000 -0.208795 0.603258
5.780000000 -0.194982 0.607729
5.790000000 -0.18105 0.611805
5.800000000 -0.16713 0.615683
5.810000000 -0.153229 0.619189
5.820000000 -0.139342 0.622385
5.830000000 -0.125483 0.625173
5.840000000 -0.11147 0.627531
5.850000000 -0.097412 0.629467
5.860000000 -0.083321 0.631058
5.870000000 -0.069006 0.632306
5.880000000 -0.054697 0.633128
5.890000000 -0.040227 0.633719
5.900000000 -0.025662 0.633994
5.910000000 -0.010964 0.634037
5.920000000 0.003693 0.633756
5.930000000 0.018304 0.633249
5.940000000 0.033017 0.63236
5.950000000 0.047693 0.631127
5.960000000 0.062421 0.62958
5.970000000 0.07718 0.627593
5.980000000 0.091806 0.62529
5.990000000 0.10653 0.622572
6.000000000 0.121187 0.619598
6.010000000 0.135814 0.616225
6.020000000 0.150305 0.612599
6.030000000 0.164759 0.608682
6.040000000 0.179135 0.604548
6.050000000 0.193283 0.600164
6.060000000 0.207263 0.595469
6.070000000 0.221031 0.59061
6.080000000 0.234573 0.585374
6.090000000 0.247865 0.579993
6.100000000 0.260915 0.574171
6.110000000 0.273652 0.568184
6.120000000 0.286252 0.561798
6.130000000 0.298549 0.555135
6.140000000 0.310629 0.548146
6.150000000 0.322537 0.540863
6.160000000 0.334229 0.533319
6.170000000 0.345742 0.525461
6.180000000 0.357031 0.517257
6.190000000 0.368121 0.508809
6.200000000 0.379089 0.500003
6.210000000 0.389818 0.490846
6.220000000 0.400406 0.481339
6.230000000 0.410803 0.471489
6.240000000 0.421125 0.461286
6.250000000 0.431276 0.450713
6.260000000 0.441261 0.4398
6.270000000 0.451142 0.428584
6.280000000 0.460852 0.416982
6.290000000 0.470372 0.405258
6.300000000 0.479713 0.39325
6.310000000 0.488911 0.381053
6.320000000 0.497825 0.368699
6.330000000 0.506434 0.356188
6.340000000 0.514831 0.343544
6.350000000 0.52289 0.330847
6.360000000 0.530717 0.318169
6.370000000 0.538186 0.305329
6.380000000 0.545415 0.292495
6.390000000 0.552178 0.279672
6.400000000 0.55866 0.266804
6.410000000 0.564747 0.253897
6.420000000 0.570455 0.240977
6.430000000 0.575699 0.227981
6.440000000 0.580495 0.21486
6.450000000 0.584834 0.201729
6.460000000 0.588814 0.188446
6.470000000 0.592426 0.17502
6.480000000 0.595657 0.161392
6.490000000 0.598487 0.147697
6.500000000 0.600997 0.133743
6.510000000 0.603145 0.119624
6.520000000 0.604953 0.105331
6.530000000 0.606428 0.09094
6.540000000 0.607607 0.076343
6.550000000 0.608376 0.061609
6.560000000 0.608802 0.046761
6.570000000 0.608895 0.031877
6.580000000 0.608672 0.016721
6.590000000 0.608155 0.001594
6.600000000 0.607277 -0.013764
6.610000000 0.60625 -0.029147
6.620000000 0.604938 -0.044428
6.630000000 0.603407 -0.059782
6.640000000 0.601606 -0.07494
6.650000000 0.599588 -0.090003
6.660000000 0.597205 -0.104843
6.670000000 0.594527 -0.119472
6.680000000 0.591419 -0.133852
6.690000000 0.587938 -0.148038
6.700000000 0.584037 -0.162041
6.710000000 0.579745 -0.175913
6.720000000 0.575036 -0.189622
6.730000000 0.569962 -0.203285
6.740000000 0.564423 -0.216775
6.750000000 0.558651 -0.230148
6.760000000 0.5525 -0.243454
6.770000000 0.545965 -0.256653
6.780000000 0.5392 -0.269726
6.790000000 0.532059 -0.282607
6.800000000 0.524545 -0.295427
6.810000000 0.51663 -0.307917
6.820000000 0.508371 -0.320334
6.830000000 0.499772 -0.332544
6.840000000 0.490801 -0.344555
6.850000000 0.481417 -0.356467
6.860000000 0.471774 -0.368309
6.870000000 0.461898 -0.379967
6.880000000 0.451753 -0.391529
6.890000000 0.441442 -0.402926
6.900000000 0.431018 -0.414075
6.910000000 0.420441 -0.424923
6.920000000 0.409696 -0.435363
6.930000000 0.39869 -0.445402
6.940000000 0.38746 -0.455083
6.950000000 0.375938 -0.464332
6.960000000 0.364158 -0.473158
6.970000000 0.352062 -0.481577
6.980000000 0.339638 -0.489737
6.990000000 0.326988 -0.497657
7.000000000 0.314037 -0.505242
7.010000000 0.300936 -0.51261
7.020000000 0.287653 -0.519648
7.030000000 0.274239 -0.526433
7.040000000 0.260649 -0.532987
7.050000000 0.246941 -0.539127
7.060000000 0.233122 -0.544932
7.070000000 0.219178 -0.550415
7.080000000 0.205101 -0.555383
7.090000000 0.190874 -0.560063
7.100000000 0.176407 -0.56435
7.110000000 0.161825 -0.568309
7.120000000 0.147153 -0.571982
7.130000000 0.132284 -0.575436
7.140000000 0.117367 -0.578592
7.150000000 0.102434 -0.581423
7.160000000 0.087552 -0.584
7.170000000 0.072711 -0.586213
7.180000000 0.057861 -0.587982
7.190000000 0.04315 -0.589255
7.200000000 0.028388 -0.590094
7.210000000 0.013729 -0.590323
7.220000000 -0.001075 -0.590091
7.230000000 -0.01584 -0.589449
7.240000000 -0.030726 -0.588278
7.250000000 -0.045634 -0.586735
7.260000000 -0.060581 -0.584757
7.270000000 -0.075546 -0.582486
7.280000000 -0.090441 -0.579944
7.290000000 -0.105385 -0.577112
7.300000000 -0.12025 -0.573795
7.310000000 -0.134912 -0.570282
7.320000000 -0.149415 -0.566426
7.330000000 -0.16381 -0.562108
7.340000000 -0.17814 -0.557357
7.350000000 -0.192254 -0.552257
7.360000000 -0.206274 -0.546779
7.370000000 -0.220212 -0.540918
7.380000000 -0.234082 -0.534745
7.390000000 -0.247752 -0.528254
7.400000000 -0.26123 -0.521542
7.410000000 -0.274542 -0.514567
7.420000000 -0.287653 -0.507199
7.430000000 -0.300572 -0.499601
7.440000000 -0.313128 -0.4917
7.450000000 -0.325528 -0.483435
7.460000000 -0.337589 -0.474806
7.470000000 -0.349429 -0.465742
7.480000000 -0.360959 -0.456277
7.490000000 -0.372267 -0.446439
7.500000000 -0.383471 -0.436202
7.510000000 -0.394363 -0.425656
7.520000000 -0.40517 -0.414635
7.530000000 -0.415709 -0.403474
7.540000000 -0.426119 -0.391987
7.550000000 -0.436296 -0.38025
7.560000000 -0.446118 -0.36835
7.570000000 -0.455744 -0.356114
7.580000000 -0.464922 -0.343797
7.590000000 -0.473893 -0.331162
7.600000000 -0.482439 -0.318435
7.610000000 -0.490751 -0.305328
7.620000000 -0.498693 -0.292208
7.630000000 -0.506291 -0.278852
7.640000000 -0.513612 -0.265308
7.650000000 -0.520568 -0.251784
7.660000000 -0.527137 -0.23805
7.670000000 -0.533328 -0.224215
7.680000000 -0.539168 -0.210282
7.690000000 -0.54455 -0.196269
7.700000000 -0.549497 -0.182129
7.710000000 -0.553991 -0.167884
7.720000000 -0.558119 -0.153503
7.730000000 -0.561696 -0.138958
7.740000000 -0.564862 -0.124355
7.750000000 -0.567647 -0.109621
7.760000000 -0.569978 -0.094759
7.770000000 -0.571912 -0.07979
7.780000000 -0.573468 -0.064716
7.790000000 -0.574656 -0.049615
7.800000000 -0.575446 -0.034445
7.810000000 -0.575903 -0.019203
7.820000000 -0.575917 -0.003998
7.830000000 -0.57568 0.011258
7.840000000 -0.575031 0.026606
7.850000000 -0.574065 0.041908
7.860000000 -0.57274 0.05717
7.870000000 -0.571061 0.072441
7.880000000 -0.56915 0.087629
7.890000000 -0.566873 0.102767
7.900000000 -0.564228 0.117786
7.910000000 -0.561216 0.132695
7.920000000 -0.557799 0.147527
7.930000000 -0.554053 0.162227
7.940000000 -0.549901 0.17671
7.950000000 -0.545334 0.191136
7.960000000 -0.540375 0.205368
7.970000000 -0.535109 0.219441
7.980000000 -0.529333 0.233286
7.990000000 -0.523293 0.247032
8.000000000 -0.516861 0.260575
8.010000000 -0.510092 0.273809
8.020000000 -0.503076 0.286838
8.030000000 -0.495681 0.299616
8.040000000 -0.488004 0.312126
8.050000000 -0.480051 0.324327
8.060000000 -0.47181 0.336202
8.070000000 -0.463258 0.3478
8.080000000 -0.454376 0.359255
8.090000000 -0.445251 0.370442
8.100000000 -0.435849 0.381416
8.110000000 -0.426227 0.392222
8.120000000 -0.416393 0.402797
8.130000000 -0.40631 0.413184
8.140000000 -0.396076 0.423259
8.150000000 -0.385568 0.433111
8.160000000 -0.37473 0.442584
8.170000000 -0.363647 0.451749
8.180000000 -0.352311 0.460605
8.190000000 -0.340561 0.469101
8.200000000 -0.328562 0.477213
8.210000000 -0.316255 0.484981
8.220000000 -0.303737 0.492474
8.230000000 -0.291055 0.499792
8.240000000 -0.278168 0.506861
8.250000000 -0.265144 0.513714
8.260000000 -0.251975 0.520343
8.270000000 -0.238705 0.526666
8.280000000 -0.225355 0.53279
8.290000000 -0.211899 0.538478
8.300000000 -0.198418 0.543895
8.310000000 -0.184802 0.548895
8.320000000 -0.171187 0.553403
8.330000000 -0.157515 0.557663
8.340000000 -0.143783 0.561434
8.350000000 -0.129944 0.565032
8.360000000 -0.116183 0.568258
8.370000000 -0.102487 0.571218
8.380000000 -0.088766 0.574013
8.390000000 -0.075229 0.576416
8.400000000 -0.061805 0.578435
8.410000000 -0.048531 0.5802
8.420000000 -0.035284 0.581443
8.430000000 -0.022136 0.582299
8.440000000 -0.008928 0.582638
8.450000000 0.004297 0.582463
8.460000000 0.017622 0.58188
8.470000000 0.031096 0.580875
8.480000000 0.044712 0.579532
8.490000000 0.058379 0.577819
8.500000000 0.072132 0.575741
