! LibreCAL 5mOUNstcbC0A set FACTORY P2_LOAD
# GHz S RI R 50
0.000009000 0.066755 -0.005352
0.000010000 0.066457 -0.004873
0.000011000 0.066319 -0.00452
0.000012000 0.066311 -0.004108
0.000013000 0.066144 -0.003916
0.000014000 0.066031 -0.003554
0.000015000 0.066013 -0.00341
0.000016000 0.066059 -0.003226
0.000017000 0.065914 -0.003101
0.000018000 0.065853 -0.002862
0.000019000 0.065853 -0.002728
0.000020000 0.065771 -0.002665
0.000021000 0.065671 -0.002509
0.000022000 0.065723 -0.002555
0.000023000 0.065758 -0.002381
0.000024000 0.065733 -0.002313
0.000025000 0.06559 -0.002216
0.000026000 0.065646 -0.002169
0.000027000 0.065698 -0.002163
0.000028000 0.065593 -0.00203
0.000029000 0.065523 -0.002011
0.000030000 0.065554 -0.001904
0.000031000 0.065471 -0.001858
0.000032000 0.0655 -0.001758
0.000033000 0.065465 -0.001744
0.000034000 0.065501 -0.001676
0.000035000 0.065423 -0.001765
0.000036000 0.065482 -0.001746
0.000037000 0.065371 -0.001652
0.000038000 0.065429 -0.001622
0.000039000 0.065394 -0.001565
0.000040000 0.065419 -0.001565
0.000041000 0.065392 -0.001549
0.000042000 0.065432 -0.001554
0.000043000 0.065282 -0.001565
0.000044000 0.065369 -0.001546
0.000045000 0.065397 -0.001514
0.000046000 0.06529 -0.001513
0.000047000 0.065318 -0.001418
0.000048000 0.065344 -0.001341
0.000049000 0.0654 -0.001341
0.000050000 0.065412 -0.001418
0.000051000 0.065415 -0.001489
0.000052000 0.065397 -0.001419
0.000053000 0.065354 -0.001418
0.000054000 0.065309 -0.001415
0.000055000 0.065325 -0.001377
0.000056000 0.065322 -0.001379
0.000057000 0.065295 -0.001273
0.000058000 0.065327 -0.001258
0.000059000 0.065376 -0.001334
0.000060000 0.06535 -0.001291
0.000061000 0.06529 -0.001296
0.000062000 0.065356 -0.001315
0.000063000 0.065259 -0.001218
0.000064000 0.065373 -0.001299
0.000065000 0.0653 -0.001306
0.000066000 0.0652 -0.001229
0.000067000 0.065365 -0.001215
0.000068000 0.065367 -0.001256
0.000069000 0.065297 -0.001256
0.000070000 0.065387 -0.00132
0.000071000 0.065274 -0.001276
0.000072000 0.065408 -0.001212
0.000073000 0.065324 -0.001184
0.000074000 0.065318 -0.00128
0.000075000 0.06536 -0.001161
0.000076000 0.065386 -0.00131
0.000077000 0.065343 -0.001181
0.000078000 0.065311 -0.001175
0.000079000 0.065384 -0.001243
0.000080000 0.065387 -0.001281
0.000081000 0.065377 -0.001344
0.000082000 0.065314 -0.001247
0.000083000 0.065267 -0.001259
0.000084000 0.065361 -0.001258
0.000085000 0.065346 -0.001276
0.000086000 0.065357 -0.001199
0.000087000 0.065247 -0.001372
0.000088000 0.065424 -0.001313
0.000089000 0.065353 -0.001211
0.000090000 0.065357 -0.001251
0.000091000 0.06531 -0.001201
0.000092000 0.065392 -0.001198
0.000093000 0.065381 -0.001269
0.000094000 0.06536 -0.001343
0.000095000 0.065357 -0.001293
0.000096000 0.065359 -0.001286
0.000097000 0.065373 -0.001302
0.000098000 0.065268 -0.001281
0.000099000 0.065365 -0.001353
0.000100000 0.065381 -0.001421
0.000110000 0.065304 -0.001352
0.000120000 0.065251 -0.001454
0.000130000 0.065296 -0.001437
0.000140000 0.065232 -0.001668
0.000150000 0.065244 -0.001582
0.000160000 0.065252 -0.00163
0.000170000 0.065179 -0.001885
0.000180000 0.065149 -0.001828
0.000190000 0.065128 -0.001885
0.000200000 0.065109 -0.00195
0.000210000 0.065055 -0.002087
0.000220000 0.064917 -0.002171
0.000230000 0.064885 -0.002172
0.000240000 0.064954 -0.002254
0.000250000 0.064816 -0.002307
0.000260000 0.064734 -0.002443
0.000270000 0.06479 -0.002326
0.000280000 0.064638 -0.002434
0.000290000 0.064598 -0.002519
0.000300000 0.064583 -0.002701
0.000310000 0.064558 -0.002684
0.000320000 0.064461 -0.002675
0.000330000 0.06438 -0.002827
0.000340000 0.064422 -0.002861
0.000350000 0.064334 -0.002904
0.000360000 0.06431 -0.003014
0.000370000 0.064244 -0.002981
0.000380000 0.064203 -0.003159
0.000390000 0.064122 -0.003125
0.000400000 0.06405 -0.003233
0.000410000 0.064009 -0.003246
0.000420000 0.063981 -0.003331
0.000430000 0.063914 -0.003415
0.000440000 0.063854 -0.003466
0.000450000 0.063726 -0.0035
0.000460000 0.063713 -0.003478
0.000470000 0.063684 -0.003407
0.000480000 0.063636 -0.003557
0.000490000 0.063529 -0.003702
0.000500000 0.063568 -0.003656
0.000510000 0.063389 -0.00372
0.000520000 0.0635 -0.003703
0.000530000 0.063401 -0.003757
0.000540000 0.063308 -0.003753
0.000550000 0.063326 -0.003836
0.000560000 0.063366 -0.003866
0.000570000 0.063182 -0.003936
0.000580000 0.063189 -0.003939
0.000590000 0.063111 -0.003928
0.000600000 0.063003 -0.003894
0.000610000 0.063022 -0.004001
0.000620000 0.062885 -0.004058
0.000630000 0.062809 -0.004063
0.000640000 0.06281 -0.004046
0.000650000 0.062732 -0.004153
0.000660000 0.062728 -0.004149
0.000670000 0.062682 -0.004161
0.000680000 0.062576 -0.004218
0.000690000 0.062695 -0.004211
0.000700000 0.062489 -0.004235
0.000710000 0.062492 -0.004233
0.000720000 0.062428 -0.004315
0.000730000 0.062428 -0.00419
0.000740000 0.06223 -0.004337
0.000750000 0.062248 -0.004291
0.000760000 0.062219 -0.004189
0.000770000 0.062158 -0.004266
0.000780000 0.062046 -0.004514
0.000790000 0.062073 -0.004404
0.000800000 0.062063 -0.004476
0.000810000 0.06198 -0.00435
0.000820000 0.061975 -0.00441
0.000830000 0.061935 -0.004434
0.000840000 0.061785 -0.004422
0.000850000 0.061812 -0.004403
0.000860000 0.061772 -0.004522
0.000870000 0.061652 -0.004556
0.000880000 0.061566 -0.004587
0.000890000 0.061694 -0.004507
0.000900000 0.061569 -0.004547
0.000910000 0.061572 -0.004586
0.000920000 0.061517 -0.004526
0.000930000 0.061525 -0.004526
0.000940000 0.061402 -0.004591
0.000950000 0.061333 -0.004606
0.000960000 0.061351 -0.004592
0.000970000 0.06127 -0.004671
0.000980000 0.06129 -0.004683
0.000990000 0.061227 -0.004526
0.001000000 0.061058 -0.004618
0.001100000 0.060745 -0.004684
0.001200000 0.060398 -0.004686
0.001300000 0.059942 -0.004658
0.001400000 0.059817 -0.004688
0.001500000 0.059471 -0.004721
0.001600000 0.059319 -0.004641
0.001700000 0.059011 -0.004562
0.001800000 0.058692 -0.004571
0.001900000 0.058453 -0.004481
0.002000000 0.058385 -0.004449
0.002100000 0.058265 -0.004317
0.002200000 0.058047 -0.00433
0.002300000 0.057947 -0.004354
0.002400000 0.057819 -0.004236
0.002500000 0.057654 -0.004191
0.002600000 0.057613 -0.004109
0.002700000 0.0575 -0.004064
0.002800000 0.057426 -0.004036
0.002900000 0.057335 -0.003943
0.003000000 0.057112 -0.003916
0.003100000 0.057054 -0.003962
0.003200000 0.056974 -0.003902
0.003300000 0.056872 -0.003796
0.003400000 0.056805 -0.003783
0.003500000 0.056639 -0.00372
0.003600000 0.056636 -0.003744
0.003700000 0.056586 -0.003655
0.003800000 0.056445 -0.003613
0.003900000 0.056416 -0.00357
0.004000000 0.056359 -0.003558
0.004100000 0.056277 -0.003504
0.004200000 0.056318 -0.003364
0.004300000 0.056212 -0.003329
0.004400000 0.056069 -0.003376
0.004500000 0.056085 -0.003321
0.004600000 0.056089 -0.003317
0.004700000 0.056098 -0.003243
0.004800000 0.056002 -0.003335
0.004900000 0.05596 -0.003169
0.005000000 0.055866 -0.003301
0.005100000 0.055836 -0.003046
0.005200000 0.055826 -0.003169
0.005300000 0.055822 -0.003115
0.005400000 0.055839 -0.00314
0.005500000 0.055863 -0.00311
0.005600000 0.05575 -0.003011
0.005700000 0.055734 -0.003107
0.005800000 0.055549 -0.002976
0.005900000 0.055681 -0.003
0.006000000 0.05558 -0.002986
0.006100000 0.055709 -0.002969
0.006200000 0.055623 -0.00295
0.006300000 0.05557 -0.002875
0.006400000 0.055561 -0.002886
0.006500000 0.055481 -0.002848
0.006600000 0.055471 -0.002845
0.006700000 0.055431 -0.002854
0.006800000 0.055456 -0.002844
0.006900000 0.055397 -0.002827
0.007000000 0.055372 -0.002783
0.007100000 0.05538 -0.002778
0.007200000 0.055388 -0.002798
0.007300000 0.055318 -0.002741
0.007400000 0.055323 -0.002703
0.007500000 0.055287 -0.002669
0.007600000 0.055263 -0.00269
0.007700000 0.055253 -0.002657
0.007800000 0.05523 -0.002653
0.007900000 0.055223 -0.002661
0.008000000 0.055219 -0.002641
0.008100000 0.055215 -0.002628
0.008200000 0.055118 -0.00258
0.008300000 0.055174 -0.002591
0.008400000 0.055104 -0.002573
0.008500000 0.05514 -0.002637
0.008600000 0.055122 -0.002639
0.008700000 0.0551 -0.002578
0.008800000 0.05511 -0.002526
0.008900000 0.05506 -0.002519
0.009000000 0.055051 -0.002523
0.009100000 0.055023 -0.002486
0.009200000 0.05506 -0.002487
0.009300000 0.055025 -0.002472
0.009400000 0.05506 -0.002494
0.009500000 0.055031 -0.002468
0.009600000 0.055017 -0.0025
0.009700000 0.05501 -0.002452
0.009800000 0.054949 -0.002433
0.009900000 0.054987 -0.002454
0.010000000 0.054978 -0.002396
0.011000000 0.054851 -0.002353
0.012000000 0.05483 -0.0023
0.013000000 0.054736 -0.002231
0.014000000 0.054665 -0.002189
0.015000000 0.054644 -0.002183
0.016000000 0.054565 -0.002132
0.017000000 0.05451 -0.002132
0.018000000 0.054494 -0.002118
0.019000000 0.054506 -0.002083
0.020000000 0.054473 -0.002059
0.021000000 0.054527 -0.0021
0.022000000 0.05445 -0.002094
0.023000000 0.05444 -0.002091
0.024000000 0.054448 -0.002116
0.025000000 0.054489 -0.002179
0.026000000 0.05442 -0.00217
0.027000000 0.054361 -0.002189
0.028000000 0.054403 -0.002244
0.029000000 0.054361 -0.002233
0.030000000 0.054384 -0.002294
0.031000000 0.054352 -0.002265
0.032000000 0.054334 -0.002344
0.033000000 0.054334 -0.002314
0.034000000 0.054333 -0.002371
0.035000000 0.054301 -0.0024
0.036000000 0.05431 -0.002384
0.037000000 0.054254 -0.002443
0.038000000 0.054344 -0.002451
0.039000000 0.054306 -0.002515
0.040000000 0.054249 -0.002532
0.041000000 0.054233 -0.002589
0.042000000 0.05429 -0.002581
0.043000000 0.054202 -0.002594
0.044000000 0.054228 -0.002585
0.045000000 0.054248 -0.002644
0.046000000 0.054207 -0.002658
0.047000000 0.0542 -0.002678
0.048000000 0.054249 -0.002726
0.049000000 0.054195 -0.002763
0.050000000 0.054215 -0.00276
0.051000000 0.054188 -0.002807
0.052000000 0.0542 -0.00281
0.053000000 0.054246 -0.002846
0.054000000 0.054185 -0.002873
0.055000000 0.054202 -0.002889
0.056000000 0.054152 -0.002916
0.057000000 0.054176 -0.002924
0.058000000 0.054211 -0.002963
0.059000000 0.054167 -0.002958
0.060000000 0.05425 -0.003051
0.061000000 0.054218 -0.002967
0.062000000 0.054227 -0.003021
0.063000000 0.054236 -0.00309
0.064000000 0.054216 -0.003043
0.065000000 0.054245 -0.003029
0.066000000 0.054212 -0.003069
0.067000000 0.054227 -0.003116
0.068000000 0.05427 -0.003163
0.069000000 0.054299 -0.003154
0.070000000 0.05427 -0.003121
0.071000000 0.054254 -0.003118
0.072000000 0.054291 -0.003165
0.073000000 0.054306 -0.003172
0.074000000 0.05435 -0.003159
0.075000000 0.054339 -0.00318
0.076000000 0.054345 -0.003184
0.077000000 0.054314 -0.003175
0.078000000 0.054365 -0.00321
0.079000000 0.054389 -0.003268
0.080000000 0.054392 -0.00325
0.081000000 0.054343 -0.003241
0.082000000 0.054286 -0.003265
0.083000000 0.054368 -0.003303
0.084000000 0.054422 -0.003255
0.085000000 0.054437 -0.003316
0.086000000 0.054444 -0.003317
0.087000000 0.054525 -0.003293
0.088000000 0.054473 -0.003336
0.089000000 0.054503 -0.003334
0.090000000 0.054438 -0.003315
0.091000000 0.054449 -0.003333
0.092000000 0.054569 -0.003399
0.093000000 0.054548 -0.003367
0.094000000 0.0546 -0.003365
0.095000000 0.054592 -0.003322
0.096000000 0.054628 -0.003373
0.097000000 0.054596 -0.003357
0.098000000 0.054653 -0.003398
0.099000000 0.054624 -0.003447
0.100000000 0.054708 -0.003353
0.110000000 0.054873 -0.003448
0.120000000 0.055131 -0.003415
0.130000000 0.055363 -0.003403
0.140000000 0.055553 -0.003327
0.150000000 0.055823 -0.003308
0.160000000 0.056067 -0.00331
0.170000000 0.056211 -0.003069
0.180000000 0.056494 -0.003073
0.190000000 0.056764 -0.002917
0.200000000 0.056804 -0.002828
0.210000000 0.057026 -0.002656
0.220000000 0.057174 -0.00258
0.230000000 0.057206 -0.002555
0.240000000 0.057167 -0.002512
0.250000000 0.057128 -0.002474
0.260000000 0.057103 -0.002631
0.270000000 0.05712 -0.002631
0.280000000 0.057125 -0.00263
0.290000000 0.057051 -0.002832
0.300000000 0.057099 -0.003233
0.310000000 0.056967 -0.003369
0.320000000 0.056671 -0.003273
0.330000000 0.056517 -0.003559
0.340000000 0.056337 -0.003892
0.350000000 0.056364 -0.004288
0.360000000 0.056429 -0.0047
0.370000000 0.05653 -0.005068
0.380000000 0.056385 -0.005516
0.390000000 0.056212 -0.006233
0.400000000 0.056214 -0.006696
0.410000000 0.05624 -0.007221
0.420000000 0.056288 -0.007696
0.430000000 0.056304 -0.008113
0.440000000 0.056445 -0.008998
0.450000000 0.05665 -0.009701
0.460000000 0.056751 -0.010223
0.470000000 0.056752 -0.010761
0.480000000 0.056985 -0.011395
0.490000000 0.057166 -0.012026
0.500000000 0.057385 -0.012618
0.510000000 0.057575 -0.013188
0.520000000 0.057701 -0.01376
0.530000000 0.057876 -0.014262
0.540000000 0.058007 -0.014852
0.550000000 0.058198 -0.015441
0.560000000 0.058368 -0.01597
0.570000000 0.058475 -0.016421
0.580000000 0.058653 -0.016902
0.590000000 0.05874 -0.017399
0.600000000 0.058798 -0.017885
0.610000000 0.058866 -0.018326
0.620000000 0.058906 -0.018751
0.630000000 0.05894 -0.019151
0.640000000 0.058947 -0.01961
0.650000000 0.058872 -0.020054
0.660000000 0.058755 -0.020431
0.670000000 0.058628 -0.020859
0.680000000 0.058484 -0.021222
0.690000000 0.058269 -0.021672
0.700000000 0.058092 -0.022128
0.710000000 0.057801 -0.022591
0.720000000 0.057514 -0.023029
0.730000000 0.057166 -0.02355
0.740000000 0.056806 -0.024011
0.750000000 0.056394 -0.02458
0.760000000 0.056029 -0.025101
0.770000000 0.055595 -0.025704
0.780000000 0.055141 -0.026319
0.790000000 0.054708 -0.026916
0.800000000 0.054282 -0.027577
0.810000000 0.053808 -0.028289
0.820000000 0.053356 -0.029008
0.830000000 0.052902 -0.029719
0.840000000 0.052464 -0.030429
0.850000000 0.052082 -0.031229
0.860000000 0.051607 -0.031919
0.870000000 0.051212 -0.03267
0.880000000 0.050834 -0.033449
0.890000000 0.050473 -0.03422
0.900000000 0.050157 -0.034915
0.910000000 0.049818 -0.035596
0.920000000 0.049432 -0.036311
0.930000000 0.049133 -0.036961
0.940000000 0.048819 -0.037622
0.950000000 0.048515 -0.038212
0.960000000 0.048202 -0.038796
0.970000000 0.047895 -0.039355
0.980000000 0.047556 -0.039851
0.990000000 0.047293 -0.04027
1.000000000 0.046927 -0.040727
1.010000000 0.046553 -0.04112
1.020000000 0.046241 -0.041486
1.030000000 0.045811 -0.041765
1.040000000 0.045421 -0.042027
1.050000000 0.044907 -0.042268
1.060000000 0.04442 -0.042529
1.070000000 0.043943 -0.042684
1.080000000 0.043336 -0.04285
1.090000000 0.042828 -0.042988
1.100000000 0.042181 -0.043133
1.110000000 0.041516 -0.043253
1.120000000 0.040855 -0.043367
1.130000000 0.040155 -0.043456
1.140000000 0.039478 -0.043523
1.150000000 0.038736 -0.043621
1.160000000 0.037954 -0.043722
1.170000000 0.037213 -0.04386
1.180000000 0.036665 -0.044266
1.190000000 0.035637 -0.045298
1.200000000 0.033768 -0.045036
1.210000000 0.032953 -0.044671
1.220000000 0.032167 -0.044644
1.230000000 0.031381 -0.04478
1.240000000 0.030616 -0.044883
1.250000000 0.029851 -0.045028
1.260000000 0.028982 -0.045158
1.270000000 0.028219 -0.045266
1.280000000 0.027451 -0.045346
1.290000000 0.026735 -0.045493
1.300000000 0.025977 -0.045573
1.310000000 0.025295 -0.045707
1.320000000 0.024653 -0.045727
1.330000000 0.024018 -0.045766
1.340000000 0.023395 -0.045803
1.350000000 0.02278 -0.045773
1.360000000 0.022287 -0.045709
1.370000000 0.021707 -0.045622
1.380000000 0.021139 -0.045472
1.390000000 0.020633 -0.045293
1.400000000 0.020179 -0.045065
1.410000000 0.019634 -0.044801
1.420000000 0.019184 -0.044499
1.430000000 0.018737 -0.044165
1.440000000 0.018246 -0.043692
1.450000000 0.0178 -0.04331
1.460000000 0.017285 -0.042818
1.470000000 0.016833 -0.042349
1.480000000 0.016366 -0.041794
1.490000000 0.015831 -0.041178
1.500000000 0.015352 -0.040577
1.510000000 0.014868 -0.039944
1.520000000 0.014323 -0.039248
1.530000000 0.013801 -0.038655
1.540000000 0.01327 -0.037888
1.550000000 0.012754 -0.037206
1.560000000 0.012197 -0.036435
1.570000000 0.011679 -0.035673
1.580000000 0.011173 -0.034947
1.590000000 0.01064 -0.034205
1.600000000 0.010033 -0.033538
1.610000000 0.009535 -0.032742
1.620000000 0.009054 -0.03198
1.630000000 0.008495 -0.03119
1.640000000 0.008033 -0.030471
1.650000000 0.007546 -0.029708
1.660000000 0.007105 -0.028999
1.670000000 0.006694 -0.028253
1.680000000 0.006232 -0.027515
1.690000000 0.00585 -0.026749
1.700000000 0.005505 -0.026089
1.710000000 0.005135 -0.025301
1.720000000 0.004871 -0.02467
1.730000000 0.004554 -0.02391
1.740000000 0.004287 -0.023221
1.750000000 0.004107 -0.022578
1.760000000 0.003915 -0.021845
1.770000000 0.003812 -0.021169
1.780000000 0.003643 -0.020489
1.790000000 0.003559 -0.019777
1.800000000 0.003592 -0.019146
1.810000000 0.003617 -0.018371
1.820000000 0.003664 -0.017736
1.830000000 0.003725 -0.017043
1.840000000 0.003882 -0.016352
1.850000000 0.004045 -0.015645
1.860000000 0.00429 -0.014931
1.870000000 0.004567 -0.014199
1.880000000 0.004851 -0.013437
1.890000000 0.005183 -0.01271
1.900000000 0.005547 -0.011907
1.910000000 0.005991 -0.011121
1.920000000 0.006369 -0.010299
1.930000000 0.006825 -0.009496
1.940000000 0.007267 -0.008665
1.950000000 0.007774 -0.007859
1.960000000 0.008266 -0.007049
1.970000000 0.008813 -0.006179
1.980000000 0.009395 -0.005295
1.990000000 0.009931 -0.004386
2.000000000 0.010503 -0.003578
2.010000000 0.011003 -0.002654
2.020000000 0.011545 -0.001819
2.030000000 0.012101 -0.000973
2.040000000 0.012616 -0.000109
2.050000000 0.013124 0.00075
2.060000000 0.013615 0.0015
2.070000000 0.014143 0.002251
2.080000000 0.014704 0.003001
2.090000000 0.015233 0.003693
2.100000000 0.015722 0.004352
2.110000000 0.01623 0.005017
2.120000000 0.016748 0.005515
2.130000000 0.017305 0.006067
2.140000000 0.017831 0.006496
2.150000000 0.018415 0.00685
2.160000000 0.018996 0.007239
2.170000000 0.01957 0.007555
2.180000000 0.020267 0.00778
2.190000000 0.020905 0.007941
2.200000000 0.021581 0.008105
2.210000000 0.022289 0.008139
2.220000000 0.023061 0.008182
2.230000000 0.023853 0.008112
2.240000000 0.024716 0.008038
2.250000000 0.025611 0.007831
2.260000000 0.026569 0.007705
2.270000000 0.027592 0.007505
2.280000000 0.028635 0.007264
2.290000000 0.029725 0.007124
2.300000000 0.030898 0.006875
2.310000000 0.032068 0.00659
2.320000000 0.033298 0.006346
2.330000000 0.034552 0.006019
2.340000000 0.035768 0.005699
2.350000000 0.037038 0.005471
2.360000000 0.038394 0.005098
2.370000000 0.039711 0.004881
2.380000000 0.040999 0.004605
2.390000000 0.042304 0.004298
2.400000000 0.043605 0.004043
2.410000000 0.044871 0.003781
2.420000000 0.046157 0.003489
2.430000000 0.047399 0.00323
2.440000000 0.048604 0.002959
2.450000000 0.049774 0.002708
2.460000000 0.0509 0.002418
2.470000000 0.051945 0.002131
2.480000000 0.052944 0.001775
2.490000000 0.053802 0.00137
2.500000000 0.054658 0.000945
2.510000000 0.055477 0.000441
2.520000000 0.056187 -0.000117
2.530000000 0.056904 -0.000706
2.540000000 0.057554 -0.001397
2.550000000 0.058129 -0.002142
2.560000000 0.058668 -0.002955
2.570000000 0.059177 -0.003927
2.580000000 0.059658 -0.004904
2.590000000 0.060123 -0.005937
2.600000000 0.060594 -0.007111
2.610000000 0.060993 -0.008289
2.620000000 0.061478 -0.009546
2.630000000 0.061979 -0.01091
2.640000000 0.062472 -0.012367
2.650000000 0.062925 -0.013861
2.660000000 0.063463 -0.015371
2.670000000 0.064045 -0.016888
2.680000000 0.06456 -0.018393
2.690000000 0.065198 -0.019932
2.700000000 0.065837 -0.021287
2.710000000 0.066562 -0.022603
2.720000000 0.067429 -0.023877
2.730000000 0.068536 -0.024997
2.740000000 0.069796 -0.026227
2.750000000 0.071352 -0.027594
2.760000000 0.072863 -0.029318
2.770000000 0.074221 -0.031151
2.780000000 0.07548 -0.033179
2.790000000 0.076451 -0.035141
2.800000000 0.077357 -0.037068
2.810000000 0.07808 -0.038867
2.820000000 0.078808 -0.040647
2.830000000 0.079336 -0.042365
2.840000000 0.079801 -0.043923
2.850000000 0.080134 -0.045572
2.860000000 0.080397 -0.047147
2.870000000 0.080635 -0.048615
2.880000000 0.080723 -0.050166
2.890000000 0.080793 -0.051631
2.900000000 0.08073 -0.053111
2.910000000 0.080642 -0.054542
2.920000000 0.08037 -0.056091
2.930000000 0.080097 -0.057581
2.940000000 0.079769 -0.059087
2.950000000 0.079364 -0.060591
2.960000000 0.078849 -0.06219
2.970000000 0.078299 -0.063715
2.980000000 0.0778 -0.065326
2.990000000 0.077073 -0.066905
3.000000000 0.076361 -0.068455
3.010000000 0.075578 -0.07011
3.020000000 0.074727 -0.071689
3.030000000 0.073846 -0.073378
3.040000000 0.072884 -0.075034
3.050000000 0.07187 -0.076738
3.060000000 0.07086 -0.078456
3.070000000 0.069785 -0.080167
3.080000000 0.06855 -0.081876
3.090000000 0.067472 -0.083602
3.100000000 0.066317 -0.085358
3.110000000 0.065036 -0.08719
3.120000000 0.063809 -0.089018
3.130000000 0.062551 -0.090838
3.140000000 0.061284 -0.092739
3.150000000 0.059944 -0.094565
3.160000000 0.0586 -0.096374
3.170000000 0.057297 -0.098295
3.180000000 0.055904 -0.100099
3.190000000 0.054572 -0.101889
3.200000000 0.053224 -0.103702
3.210000000 0.051844 -0.105428
3.220000000 0.050479 -0.107066
3.230000000 0.049204 -0.1087
3.240000000 0.047865 -0.110279
3.250000000 0.046534 -0.111697
3.260000000 0.045235 -0.113098
3.270000000 0.043882 -0.114479
3.280000000 0.042489 -0.115636
3.290000000 0.04114 -0.11678
3.300000000 0.039704 -0.117732
3.310000000 0.038183 -0.118724
3.320000000 0.036681 -0.119487
3.330000000 0.03507 -0.120166
3.340000000 0.033428 -0.120857
3.350000000 0.031722 -0.121264
3.360000000 0.029901 -0.121751
3.370000000 0.027977 -0.122022
3.380000000 0.026062 -0.12227
3.390000000 0.023927 -0.122446
3.400000000 0.021697 -0.122575
3.410000000 0.019417 -0.122636
3.420000000 0.017016 -0.122686
3.430000000 0.014451 -0.122707
3.440000000 0.011906 -0.122664
3.450000000 0.009184 -0.122694
3.460000000 0.006411 -0.122737
3.470000000 0.003585 -0.122678
3.480000000 0.000692 -0.12276
3.490000000 -0.002129 -0.122883
3.500000000 -0.005101 -0.122893
3.510000000 -0.008015 -0.12304
3.520000000 -0.010951 -0.123103
3.530000000 -0.01385 -0.123193
3.540000000 -0.016756 -0.123308
3.550000000 -0.019599 -0.123384
3.560000000 -0.022321 -0.123425
3.570000000 -0.025063 -0.123476
3.580000000 -0.027757 -0.123413
3.590000000 -0.030359 -0.123334
3.600000000 -0.032978 -0.1232
3.610000000 -0.035508 -0.123026
3.620000000 -0.038018 -0.12272
3.630000000 -0.040492 -0.122316
3.640000000 -0.042914 -0.121878
3.650000000 -0.045336 -0.121333
3.660000000 -0.047713 -0.120688
3.670000000 -0.050148 -0.119983
3.680000000 -0.052459 -0.119074
3.690000000 -0.054811 -0.118225
3.700000000 -0.057169 -0.117263
3.710000000 -0.059451 -0.116175
3.720000000 -0.061764 -0.114965
3.730000000 -0.0641 -0.113728
3.740000000 -0.066394 -0.112382
3.750000000 -0.068642 -0.110968
3.760000000 -0.070936 -0.109504
3.770000000 -0.073212 -0.107972
3.780000000 -0.075449 -0.10637
3.790000000 -0.077712 -0.104692
3.800000000 -0.079945 -0.103015
3.810000000 -0.082165 -0.101295
3.820000000 -0.08432 -0.099408
3.830000000 -0.08643 -0.097525
3.840000000 -0.088517 -0.095614
3.850000000 -0.090581 -0.093595
3.860000000 -0.092642 -0.091558
3.870000000 -0.094588 -0.089365
3.880000000 -0.096505 -0.087192
3.890000000 -0.098462 -0.084971
3.900000000 -0.10038 -0.082604
3.910000000 -0.102287 -0.08025
3.920000000 -0.104154 -0.077822
3.930000000 -0.105959 -0.075353
3.940000000 -0.107797 -0.072923
3.950000000 -0.109602 -0.070361
3.960000000 -0.11137 -0.067836
3.970000000 -0.113037 -0.065185
3.980000000 -0.11476 -0.062623
3.990000000 -0.116414 -0.060011
4.000000000 -0.118013 -0.057398
4.010000000 -0.119603 -0.054793
4.020000000 -0.121124 -0.052246
4.030000000 -0.122556 -0.049643
4.040000000 -0.124033 -0.047082
4.050000000 -0.125339 -0.044523
4.060000000 -0.12658 -0.042076
4.070000000 -0.127732 -0.039526
4.080000000 -0.128793 -0.037046
4.090000000 -0.129687 -0.034599
4.100000000 -0.130466 -0.032159
4.110000000 -0.131117 -0.029671
4.120000000 -0.131617 -0.027123
4.130000000 -0.131974 -0.024597
4.140000000 -0.132243 -0.021974
4.150000000 -0.132362 -0.019345
4.160000000 -0.132368 -0.016654
4.170000000 -0.132292 -0.0139
4.180000000 -0.132048 -0.011055
4.190000000 -0.131797 -0.008086
4.200000000 -0.131414 -0.00517
4.210000000 -0.130953 -0.002137
4.220000000 -0.130447 0.000983
4.230000000 -0.129863 0.004143
4.240000000 -0.129249 0.007355
4.250000000 -0.128575 0.010576
4.260000000 -0.127853 0.013829
4.270000000 -0.12708 0.017108
4.280000000 -0.126312 0.020437
4.290000000 -0.125532 0.023804
4.300000000 -0.124836 0.027068
4.310000000 -0.123991 0.030312
4.320000000 -0.123276 0.033528
4.330000000 -0.122375 0.036668
4.340000000 -0.121586 0.039762
4.350000000 -0.120659 0.04275
4.360000000 -0.119677 0.045666
4.370000000 -0.118599 0.048456
4.380000000 -0.117461 0.051204
4.390000000 -0.116252 0.053881
4.400000000 -0.114877 0.05654
4.410000000 -0.113434 0.059071
4.420000000 -0.111891 0.061531
4.430000000 -0.110258 0.06399
4.440000000 -0.108516 0.066322
4.450000000 -0.106628 0.068705
4.460000000 -0.104638 0.071042
4.470000000 -0.10266 0.073307
4.480000000 -0.100527 0.075581
4.490000000 -0.098291 0.077813
4.500000000 -0.095959 0.080024
4.510000000 -0.093604 0.082172
4.520000000 -0.091138 0.084403
4.530000000 -0.088596 0.086508
4.540000000 -0.086025 0.088651
4.550000000 -0.083392 0.090719
4.560000000 -0.080783 0.09281
4.570000000 -0.078129 0.094774
4.580000000 -0.075477 0.09671
4.590000000 -0.072791 0.09856
4.600000000 -0.070038 0.100351
4.610000000 -0.0672 0.102053
4.620000000 -0.064366 0.103635
4.630000000 -0.061514 0.105107
4.640000000 -0.058574 0.106539
4.650000000 -0.055522 0.10783
4.660000000 -0.05248 0.109017
4.670000000 -0.049353 0.110205
4.680000000 -0.046163 0.111196
4.690000000 -0.042897 0.112161
4.700000000 -0.039588 0.113084
4.710000000 -0.036175 0.113833
4.720000000 -0.032827 0.114637
4.730000000 -0.029257 0.1153
4.740000000 -0.025736 0.115916
4.750000000 -0.022143 0.116459
4.760000000 -0.018527 0.116997
4.770000000 -0.014851 0.117503
4.780000000 -0.011119 0.117899
4.790000000 -0.007421 0.118307
4.800000000 -0.003665 0.118667
4.810000000 7e-05 0.119031
4.820000000 0.003804 0.119281
4.830000000 0.007428 0.119514
4.840000000 0.011092 0.119684
4.850000000 0.014698 0.119823
4.860000000 0.01824 0.119848
4.870000000 0.021718 0.119819
4.880000000 0.025115 0.119709
4.890000000 0.028442 0.119452
4.900000000 0.031742 0.119101
4.910000000 0.034916 0.118639
4.920000000 0.038129 0.117963
4.930000000 0.041233 0.1171
4.940000000 0.044289 0.116159
4.950000000 0.047403 0.115059
4.960000000 0.050445 0.113751
4.970000000 0.053415 0.112272
4.980000000 0.056462 0.110611
4.990000000 0.059465 0.108893
5.000000000 0.062459 0.106869
5.010000000 0.065425 0.104792
5.020000000 0.0685 0.102557
5.030000000 0.071456 0.100248
5.040000000 0.074367 0.09779
5.050000000 0.077269 0.095306
5.060000000 0.080149 0.092773
5.070000000 0.083013 0.090233
5.080000000 0.085825 0.087668
5.090000000 0.088608 0.085082
5.100000000 0.09136 0.082544
5.110000000 0.0941 0.080037
5.120000000 0.096785 0.077525
5.130000000 0.099456 0.074982
5.140000000 0.10207 0.072483
5.150000000 0.104577 0.069957
5.160000000 0.107086 0.067411
5.170000000 0.109492 0.064891
5.180000000 0.111793 0.062333
5.190000000 0.11398 0.059763
5.200000000 0.116095 0.057085
5.210000000 0.118051 0.054401
5.220000000 0.119894 0.051732
5.230000000 0.121689 0.048929
5.240000000 0.123346 0.046081
5.250000000 0.124911 0.043218
5.260000000 0.126381 0.040183
5.270000000 0.127713 0.037197
5.280000000 0.129062 0.034094
5.290000000 0.130224 0.030925
5.300000000 0.131352 0.027719
5.310000000 0.132329 0.024437
5.320000000 0.133214 0.021106
5.330000000 0.134026 0.017778
5.340000000 0.134646 0.014315
5.350000000 0.135182 0.010817
5.360000000 0.13566 0.007273
5.370000000 0.135967 0.00363
5.380000000 0.13618 -5.2e-05
5.390000000 0.136341 -0.003799
5.400000000 0.136395 -0.007591
5.410000000 0.136413 -0.011413
5.420000000 0.136278 -0.01527
5.430000000 0.136156 -0.019176
5.440000000 0.135847 -0.02308
5.450000000 0.135441 -0.02705
5.460000000 0.13501 -0.030974
5.470000000 0.134395 -0.034915
5.480000000 0.133762 -0.038838
5.490000000 0.132967 -0.042841
5.500000000 0.132168 -0.046786
5.510000000 0.131284 -0.050774
5.520000000 0.130345 -0.054779
5.530000000 0.129443 -0.058779
5.540000000 0.128431 -0.062766
5.550000000 0.127469 -0.066746
5.560000000 0.126384 -0.070712
5.570000000 0.12525 -0.074587
5.580000000 0.123981 -0.078407
5.590000000 0.122636 -0.082166
5.600000000 0.121242 -0.08583
5.610000000 0.119681 -0.089441
5.620000000 0.118029 -0.09295
5.630000000 0.116296 -0.096394
5.640000000 0.114477 -0.099746
5.650000000 0.112559 -0.102963
5.660000000 0.11049 -0.106134
5.670000000 0.1084 -0.109167
5.680000000 0.106118 -0.112189
5.690000000 0.103798 -0.115065
5.700000000 0.101341 -0.117809
5.710000000 0.098692 -0.120486
5.720000000 0.095947 -0.123001
5.730000000 0.093033 -0.125474
5.740000000 0.089945 -0.12791
5.750000000 0.086688 -0.13028
5.760000000 0.083344 -0.132609
5.770000000 0.079805 -0.134891
5.780000000 0.076142 -0.137149
5.790000000 0.072402 -0.139447
5.800000000 0.06857 -0.141649
5.810000000 0.064612 -0.143913
5.820000000 0.060615 -0.146096
5.830000000 0.05652 -0.148289
5.840000000 0.052427 -0.150454
5.850000000 0.04826 -0.152517
5.860000000 0.044068 -0.154566
5.870000000 0.039842 -0.156615
5.880000000 0.035536 -0.158553
5.890000000 0.03127 -0.16044
5.900000000 0.026977 -0.162286
5.910000000 0.022755 -0.16405
5.920000000 0.018464 -0.165754
5.930000000 0.014266 -0.167393
5.940000000 0.010108 -0.168921
5.950000000 0.006019 -0.170361
5.960000000 0.001982 -0.171637
5.970000000 -0.002051 -0.172764
5.980000000 -0.00608 -0.173702
5.990000000 -0.009972 -0.174502
6.000000000 -0.013905 -0.175053
6.010000000 -0.017877 -0.175495
6.020000000 -0.021838 -0.175727
6.030000000 -0.025843 -0.175773
6.040000000 -0.029877 -0.175631
6.050000000 -0.033912 -0.175354
6.060000000 -0.03802 -0.174989
6.070000000 -0.042116 -0.174389
6.080000000 -0.046277 -0.173677
6.090000000 -0.050479 -0.172778
6.100000000 -0.054735 -0.171748
6.110000000 -0.058964 -0.170544
6.120000000 -0.063319 -0.169256
6.130000000 -0.067685 -0.167755
6.140000000 -0.072092 -0.166167
6.150000000 -0.076561 -0.164472
6.160000000 -0.081024 -0.162647
6.170000000 -0.085567 -0.160775
6.180000000 -0.090085 -0.15877
6.190000000 -0.094626 -0.156757
6.200000000 -0.099177 -0.154711
6.210000000 -0.103664 -0.1525
6.220000000 -0.108121 -0.150336
6.230000000 -0.112573 -0.148122
6.240000000 -0.116923 -0.145826
6.250000000 -0.121175 -0.143462
6.260000000 -0.125407 -0.141072
6.270000000 -0.129542 -0.138596
6.280000000 -0.133507 -0.136062
6.290000000 -0.137443 -0.133483
6.300000000 -0.141282 -0.13082
6.310000000 -0.144963 -0.128048
6.320000000 -0.148507 -0.125257
6.330000000 -0.151932 -0.122404
6.340000000 -0.155289 -0.119353
6.350000000 -0.158584 -0.116301
6.360000000 -0.16173 -0.113021
6.370000000 -0.164837 -0.10967
6.380000000 -0.167772 -0.106183
6.390000000 -0.170612 -0.102538
6.400000000 -0.173385 -0.098703
6.410000000 -0.176031 -0.094762
6.420000000 -0.1786 -0.090726
6.430000000 -0.181042 -0.086564
6.440000000 -0.183425 -0.082268
6.450000000 -0.185699 -0.077842
6.460000000 -0.187887 -0.073343
6.470000000 -0.189993 -0.068799
6.480000000 -0.192107 -0.064148
6.490000000 -0.19405 -0.059375
6.500000000 -0.195974 -0.054575
6.510000000 -0.19781 -0.049772
6.520000000 -0.199569 -0.044882
6.530000000 -0.201214 -0.040001
6.540000000 -0.202798 -0.035073
6.550000000 -0.204158 -0.03018
6.560000000 -0.205401 -0.025204
6.570000000 -0.206532 -0.020222
6.580000000 -0.207576 -0.015244
6.590000000 -0.208408 -0.010168
6.600000000 -0.209138 -0.005098
6.610000000 -0.209687 8.4e-05
6.620000000 -0.21012 0.005182
6.630000000 -0.210449 0.010373
6.640000000 -0.210614 0.01563
6.650000000 -0.210663 0.020886
6.660000000 -0.210561 0.026168
6.670000000 -0.210328 0.03142
6.680000000 -0.20998 0.036721
6.690000000 -0.209487 0.042056
6.700000000 -0.20885 0.04737
6.710000000 -0.208134 0.052729
6.720000000 -0.207181 0.058066
6.730000000 -0.206155 0.063426
6.740000000 -0.205044 0.068794
6.750000000 -0.20376 0.074171
6.760000000 -0.202409 0.079633
6.770000000 -0.200962 0.085007
6.780000000 -0.199413 0.090364
6.790000000 -0.197786 0.095629
6.800000000 -0.196049 0.100876
6.810000000 -0.194156 0.106036
6.820000000 -0.192159 0.111066
6.830000000 -0.189966 0.116011
6.840000000 -0.187654 0.120928
6.850000000 -0.185253 0.125756
6.860000000 -0.182647 0.130556
6.870000000 -0.179889 0.135274
6.880000000 -0.177034 0.139933
6.890000000 -0.174042 0.14458
6.900000000 -0.170964 0.149185
6.910000000 -0.167822 0.153682
6.920000000 -0.164567 0.158123
6.930000000 -0.161088 0.162391
6.940000000 -0.157662 0.166572
6.950000000 -0.154007 0.170699
6.960000000 -0.150181 0.174649
6.970000000 -0.146191 0.178466
6.980000000 -0.142105 0.182155
6.990000000 -0.13772 0.18585
7.000000000 -0.133315 0.189441
7.010000000 -0.128762 0.192984
7.020000000 -0.12404 0.196502
7.030000000 -0.119321 0.199994
7.040000000 -0.114461 0.20336
7.050000000 -0.109502 0.206708
7.060000000 -0.104538 0.209893
7.070000000 -0.09949 0.213056
7.080000000 -0.094344 0.216104
7.090000000 -0.089128 0.219006
7.100000000 -0.083861 0.221784
7.110000000 -0.078524 0.224474
7.120000000 -0.073089 0.227148
7.130000000 -0.067545 0.229647
7.140000000 -0.062038 0.232129
7.150000000 -0.056499 0.234576
7.160000000 -0.050974 0.236909
7.170000000 -0.045458 0.239235
7.180000000 -0.039996 0.24137
7.190000000 -0.034525 0.243404
7.200000000 -0.029101 0.245251
7.210000000 -0.023757 0.246964
7.220000000 -0.018355 0.248439
7.230000000 -0.012993 0.249782
7.240000000 -0.007586 0.250812
7.250000000 -0.002116 0.251682
7.260000000 0.003398 0.252432
7.270000000 0.009021 0.25295
7.280000000 0.014638 0.253319
7.290000000 0.020346 0.253599
7.300000000 0.026065 0.253596
7.310000000 0.031817 0.253419
7.320000000 0.037688 0.253186
7.330000000 0.04347 0.252665
7.340000000 0.04935 0.251972
7.350000000 0.055272 0.251069
7.360000000 0.061208 0.250005
7.370000000 0.067259 0.24882
7.380000000 0.073345 0.247488
7.390000000 0.079526 0.246037
7.400000000 0.085707 0.244434
7.410000000 0.091957 0.242765
7.420000000 0.098206 0.2411
7.430000000 0.104498 0.239265
7.440000000 0.11073 0.237443
7.450000000 0.11697 0.235455
7.460000000 0.123099 0.233395
7.470000000 0.129165 0.231211
7.480000000 0.135185 0.228916
7.490000000 0.141042 0.22638
7.500000000 0.146798 0.223767
7.510000000 0.152527 0.220947
7.520000000 0.158135 0.218036
7.530000000 0.163665 0.214987
7.540000000 0.16905 0.211822
7.550000000 0.174377 0.208549
7.560000000 0.17961 0.205172
7.570000000 0.18463 0.201634
7.580000000 0.189614 0.19799
7.590000000 0.194477 0.194196
7.600000000 0.199179 0.190269
7.610000000 0.203753 0.186239
7.620000000 0.208223 0.182048
7.630000000 0.212578 0.177637
7.640000000 0.21692 0.173148
7.650000000 0.221107 0.168487
7.660000000 0.225247 0.163714
7.670000000 0.229264 0.15887
7.680000000 0.23324 0.153924
7.690000000 0.237099 0.148949
7.700000000 0.240822 0.14384
7.710000000 0.244397 0.138694
7.720000000 0.247867 0.133456
7.730000000 0.251146 0.12807
7.740000000 0.254281 0.122621
7.750000000 0.257287 0.117068
7.760000000 0.26014 0.111399
7.770000000 0.262777 0.105568
7.780000000 0.26531 0.099649
7.790000000 0.267767 0.093622
7.800000000 0.270073 0.087419
7.810000000 0.272235 0.081178
7.820000000 0.274291 0.074874
7.830000000 0.276202 0.068436
7.840000000 0.278006 0.061839
7.850000000 0.279685 0.055263
7.860000000 0.281306 0.048567
7.870000000 0.282736 0.041791
7.880000000 0.284113 0.03498
7.890000000 0.285328 0.028139
7.900000000 0.286488 0.021228
7.910000000 0.287491 0.014329
7.920000000 0.288484 0.007465
7.930000000 0.289336 0.000621
7.940000000 0.289997 -0.006146
7.950000000 0.290568 -0.012901
7.960000000 0.291047 -0.019534
7.970000000 0.291317 -0.026093
7.980000000 0.291458 -0.03262
7.990000000 0.291327 -0.039063
8.000000000 0.291078 -0.045474
8.010000000 0.290575 -0.051809
8.020000000 0.289774 -0.05804
8.030000000 0.288786 -0.064246
8.040000000 0.287592 -0.070412
8.050000000 0.286127 -0.076537
8.060000000 0.284359 -0.082695
8.070000000 0.282355 -0.088813
8.080000000 0.280071 -0.094933
8.090000000 0.277543 -0.101145
8.100000000 0.274692 -0.107313
8.110000000 0.271638 -0.113572
8.120000000 0.268399 -0.119798
8.130000000 0.264874 -0.126164
8.140000000 0.261263 -0.132511
8.150000000 0.257439 -0.138834
8.160000000 0.253542 -0.145161
8.170000000 0.249468 -0.151383
8.180000000 0.245497 -0.15733
8.190000000 0.241378 -0.163228
8.200000000 0.237483 -0.168877
8.210000000 0.233601 -0.174371
8.220000000 0.229973 -0.179828
8.230000000 0.226553 -0.185277
8.240000000 0.223225 -0.190848
8.250000000 0.21993 -0.19661
8.260000000 0.216654 -0.202343
8.270000000 0.213167 -0.208163
8.280000000 0.209497 -0.213949
8.290000000 0.20559 -0.219494
8.300000000 0.201434 -0.224807
8.310000000 0.197146 -0.229975
8.320000000 0.19257 -0.234802
8.330000000 0.187816 -0.239394
8.340000000 0.182764 -0.243862
8.350000000 0.177541 -0.248009
8.360000000 0.172027 -0.252056
8.370000000 0.166362 -0.255954
8.380000000 0.160412 -0.259767
8.390000000 0.154384 -0.2634
8.400000000 0.148109 -0.266979
8.410000000 0.141717 -0.270404
8.420000000 0.135154 -0.27371
8.430000000 0.128477 -0.276915
8.440000000 0.12176 -0.279944
8.450000000 0.114828 -0.282782
8.460000000 0.107916 -0.285565
8.470000000 0.100872 -0.288149
8.480000000 0.093756 -0.290627
8.490000000 0.086501 -0.292992
8.500000000 0.079282 -0.295192
