! LibreCAL 5mOUNstcbC0A set FACTORY P2_SHORT
# GHz S RI R 50
0.000009000 -0.722992 -0.00138
0.000010000 -0.723061 -0.00119
0.000011000 -0.723019 -0.001087
0.000012000 -0.723103 -0.000956
0.000013000 -0.723059 -0.000853
0.000014000 -0.723066 -0.000768
0.000015000 -0.723145 -0.00071
0.000016000 -0.723032 -0.000599
0.000017000 -0.723083 -0.000576
0.000018000 -0.723164 -0.000537
0.000019000 -0.72314 -0.00054
0.000020000 -0.723088 -0.000492
0.000021000 -0.723182 -0.000393
0.000022000 -0.723089 -0.000444
0.000023000 -0.723096 -0.000348
0.000024000 -0.723144 -0.000283
0.000025000 -0.723188 -0.000327
0.000026000 -0.723147 -0.000287
0.000027000 -0.723104 -0.000343
0.000028000 -0.72313 -0.000231
0.000029000 -0.723085 -0.000226
0.000030000 -0.723125 -0.000186
0.000031000 -0.723249 -0.000171
0.000032000 -0.72316 -0.000148
0.000033000 -0.72317 -0.000133
0.000034000 -0.723138 -0.000106
0.000035000 -0.723226 -0.000137
0.000036000 -0.723104 -0.000189
0.000037000 -0.723135 -0.000118
0.000038000 -0.723112 -0.000138
0.000039000 -0.723142 -0.000116
0.000040000 -0.723199 -8.5e-05
0.000041000 -0.723154 -9.6e-05
0.000042000 -0.723102 -0.000188
0.000043000 -0.723123 -7.6e-05
0.000044000 -0.723151 -0.000111
0.000045000 -0.723167 -9.5e-05
0.000046000 -0.723172 -0.000103
0.000047000 -0.723174 -4.9e-05
0.000048000 -0.723121 -0.000105
0.000049000 -0.723075 -1.4e-05
0.000050000 -0.723068 -5.2e-05
0.000051000 -0.72313 -1.4e-05
0.000052000 -0.723076 -1.4e-05
0.000053000 -0.723132 -1.8e-05
0.000054000 -0.723116 -8.3e-05
0.000055000 -0.723138 6e-06
0.000056000 -0.723149 7.1e-05
0.000057000 -0.723149 4.7e-05
0.000058000 -0.723152 6.1e-05
0.000059000 -0.723074 -1.4e-05
0.000060000 -0.723103 1e-06
0.000061000 -0.723159 3.1e-05
0.000062000 -0.723111 1.4e-05
0.000063000 -0.723163 5.8e-05
0.000064000 -0.723138 1.9e-05
0.000065000 -0.723149 -6e-06
0.000066000 -0.723192 8.5e-05
0.000067000 -0.723081 0.000115
0.000068000 -0.723134 6.5e-05
0.000069000 -0.723146 0.000116
0.000070000 -0.723171 3.1e-05
0.000071000 -0.723124 7.8e-05
0.000072000 -0.723119 7.6e-05
0.000073000 -0.72314 0.000153
0.000074000 -0.723113 2.3e-05
0.000075000 -0.72305 0.000196
0.000076000 -0.723107 0.000111
0.000077000 -0.723132 0.0001
0.000078000 -0.723113 0.000119
0.000079000 -0.723038 9.6e-05
0.000080000 -0.723137 0.000137
0.000081000 -0.723136 0.00012
0.000082000 -0.723192 0.000178
0.000083000 -0.723127 0.0001
0.000084000 -0.723163 0.000179
0.000085000 -0.723121 0.000106
0.000086000 -0.723153 0.000155
0.000087000 -0.723171 0.000115
0.000088000 -0.723137 0.000148
0.000089000 -0.723032 0.000202
0.000090000 -0.723151 0.00019
0.000091000 -0.723091 0.000175
0.000092000 -0.723154 0.000198
0.000093000 -0.723104 0.000153
0.000094000 -0.723118 0.000218
0.000095000 -0.723108 0.000206
0.000096000 -0.723134 0.000235
0.000097000 -0.723149 0.000208
0.000098000 -0.723117 0.00019
0.000099000 -0.72308 0.000239
0.000100000 -0.723117 0.000114
0.000110000 -0.72303 0.000203
0.000120000 -0.723106 0.000325
0.000130000 -0.723084 0.000307
0.000140000 -0.723072 0.000289
0.000150000 -0.723024 0.000326
0.000160000 -0.723088 0.000372
0.000170000 -0.723106 0.000367
0.000180000 -0.723075 0.000392
0.000190000 -0.723041 0.000366
0.000200000 -0.723066 0.000484
0.000210000 -0.723071 0.000439
0.000220000 -0.723042 0.000493
0.000230000 -0.723016 0.000479
0.000240000 -0.723055 0.000506
0.000250000 -0.723013 0.000536
0.000260000 -0.72303 0.000572
0.000270000 -0.722965 0.00061
0.000280000 -0.723007 0.000636
0.000290000 -0.722972 0.000682
0.000300000 -0.723099 0.00063
0.000310000 -0.723009 0.000643
0.000320000 -0.723053 0.000722
0.000330000 -0.723059 0.000702
0.000340000 -0.723012 0.000712
0.000350000 -0.723012 0.000769
0.000360000 -0.723051 0.000747
0.000370000 -0.722922 0.000881
0.000380000 -0.722957 0.000852
0.000390000 -0.722993 0.000868
0.000400000 -0.722922 0.000765
0.000410000 -0.722992 0.000875
0.000420000 -0.723029 0.000912
0.000430000 -0.722946 0.000871
0.000440000 -0.722991 0.000938
0.000450000 -0.722987 0.000935
0.000460000 -0.723016 0.000911
0.000470000 -0.723009 0.001026
0.000480000 -0.722992 0.000935
0.000490000 -0.723051 0.001024
0.000500000 -0.722987 0.001001
0.000510000 -0.722947 0.00106
0.000520000 -0.722974 0.001114
0.000530000 -0.722982 0.001067
0.000540000 -0.722995 0.001092
0.000550000 -0.722927 0.001083
0.000560000 -0.722892 0.00111
0.000570000 -0.722968 0.001173
0.000580000 -0.722921 0.001157
0.000590000 -0.72294 0.001149
0.000600000 -0.72302 0.00119
0.000610000 -0.722976 0.001238
0.000620000 -0.723025 0.001256
0.000630000 -0.722936 0.001198
0.000640000 -0.723003 0.001267
0.000650000 -0.722981 0.001304
0.000660000 -0.722933 0.00128
0.000670000 -0.723028 0.001371
0.000680000 -0.723037 0.001314
0.000690000 -0.722988 0.001365
0.000700000 -0.722957 0.001351
0.000710000 -0.722925 0.001349
0.000720000 -0.722959 0.001442
0.000730000 -0.722965 0.001429
0.000740000 -0.723028 0.0014
0.000750000 -0.722983 0.001453
0.000760000 -0.722894 0.001478
0.000770000 -0.722965 0.001502
0.000780000 -0.722978 0.001462
0.000790000 -0.722944 0.001548
0.000800000 -0.722937 0.001553
0.000810000 -0.723055 0.001559
0.000820000 -0.723028 0.001644
0.000830000 -0.722989 0.001628
0.000840000 -0.723038 0.00168
0.000850000 -0.72302 0.001632
0.000860000 -0.72293 0.001649
0.000870000 -0.722941 0.001727
0.000880000 -0.722987 0.001695
0.000890000 -0.72294 0.001727
0.000900000 -0.72305 0.001744
0.000910000 -0.722929 0.001704
0.000920000 -0.722933 0.001785
0.000930000 -0.722979 0.001786
0.000940000 -0.722944 0.001761
0.000950000 -0.722987 0.001815
0.000960000 -0.722973 0.001866
0.000970000 -0.723041 0.001817
0.000980000 -0.72294 0.001819
0.000990000 -0.722927 0.001918
0.001000000 -0.723001 0.001948
0.001100000 -0.723094 0.002079
0.001200000 -0.722993 0.002308
0.001300000 -0.723049 0.002563
0.001400000 -0.723096 0.002672
0.001500000 -0.723088 0.002841
0.001600000 -0.72301 0.003073
0.001700000 -0.723105 0.003245
0.001800000 -0.723155 0.003472
0.001900000 -0.723181 0.003664
0.002000000 -0.723095 0.003905
0.002100000 -0.723202 0.004199
0.002200000 -0.72316 0.004352
0.002300000 -0.723139 0.004477
0.002400000 -0.723182 0.004766
0.002500000 -0.723134 0.004924
0.002600000 -0.7231 0.005203
0.002700000 -0.72313 0.005365
0.002800000 -0.723172 0.005544
0.002900000 -0.723117 0.005773
0.003000000 -0.72321 0.005948
0.003100000 -0.723177 0.006201
0.003200000 -0.723147 0.006338
0.003300000 -0.723241 0.006556
0.003400000 -0.723227 0.006788
0.003500000 -0.723212 0.007029
0.003600000 -0.723232 0.007149
0.003700000 -0.723214 0.007415
0.003800000 -0.723234 0.00768
0.003900000 -0.723189 0.007777
0.004000000 -0.723224 0.008074
0.004100000 -0.723226 0.008283
0.004200000 -0.723172 0.008465
0.004300000 -0.72321 0.008731
0.004400000 -0.723139 0.008917
0.004500000 -0.723233 0.009099
0.004600000 -0.723177 0.009274
0.004700000 -0.723163 0.009554
0.004800000 -0.723165 0.009718
0.004900000 -0.72316 0.009915
0.005000000 -0.723195 0.010105
0.005100000 -0.723202 0.010366
0.005200000 -0.723164 0.010519
0.005300000 -0.723168 0.010671
0.005400000 -0.723178 0.0109
0.005500000 -0.723132 0.011155
0.005600000 -0.723133 0.011424
0.005700000 -0.723076 0.011527
0.005800000 -0.723137 0.011799
0.005900000 -0.723095 0.012044
0.006000000 -0.723103 0.012182
0.006100000 -0.723011 0.012449
0.006200000 -0.723103 0.012586
0.006300000 -0.723122 0.012823
0.006400000 -0.723113 0.013041
0.006500000 -0.723136 0.013226
0.006600000 -0.723113 0.013436
0.006700000 -0.72309 0.013663
0.006800000 -0.723115 0.013857
0.006900000 -0.723097 0.014038
0.007000000 -0.723102 0.014263
0.007100000 -0.723062 0.014469
0.007200000 -0.723017 0.014799
0.007300000 -0.7231 0.014898
0.007400000 -0.723062 0.015106
0.007500000 -0.723034 0.015281
0.007600000 -0.723038 0.015504
0.007700000 -0.723042 0.015718
0.007800000 -0.723032 0.015902
0.007900000 -0.723011 0.016119
0.008000000 -0.723042 0.016309
0.008100000 -0.722998 0.01651
0.008200000 -0.72302 0.016756
0.008300000 -0.722988 0.016928
0.008400000 -0.723009 0.01714
0.008500000 -0.722974 0.017322
0.008600000 -0.722982 0.017538
0.008700000 -0.722956 0.017751
0.008800000 -0.722971 0.017969
0.008900000 -0.722981 0.018155
0.009000000 -0.722951 0.018367
0.009100000 -0.722992 0.018579
0.009200000 -0.722956 0.018799
0.009300000 -0.722935 0.018989
0.009400000 -0.722932 0.019187
0.009500000 -0.722918 0.019372
0.009600000 -0.722894 0.01959
0.009700000 -0.722885 0.019799
0.009800000 -0.722925 0.019995
0.009900000 -0.722856 0.02022
0.010000000 -0.722856 0.020405
0.011000000 -0.722796 0.022467
0.012000000 -0.722688 0.02451
0.013000000 -0.72261 0.026564
0.014000000 -0.722482 0.028574
0.015000000 -0.722356 0.030605
0.016000000 -0.722245 0.03263
0.017000000 -0.722082 0.034684
0.018000000 -0.721977 0.036681
0.019000000 -0.721804 0.03875
0.020000000 -0.72167 0.040766
0.021000000 -0.72147 0.042825
0.022000000 -0.721281 0.044814
0.023000000 -0.721117 0.046824
0.024000000 -0.720943 0.048839
0.025000000 -0.720739 0.050835
0.026000000 -0.720571 0.05288
0.027000000 -0.720353 0.054908
0.028000000 -0.720139 0.056864
0.029000000 -0.719937 0.058922
0.030000000 -0.719676 0.060922
0.031000000 -0.719487 0.062938
0.032000000 -0.71927 0.064893
0.033000000 -0.718991 0.066959
0.034000000 -0.718788 0.068872
0.035000000 -0.718505 0.070891
0.036000000 -0.718267 0.072939
0.037000000 -0.718004 0.0749
0.038000000 -0.717714 0.076929
0.039000000 -0.717461 0.078924
0.040000000 -0.717158 0.08089
0.041000000 -0.716916 0.082826
0.042000000 -0.716568 0.084838
0.043000000 -0.71628 0.086851
0.044000000 -0.715994 0.088801
0.045000000 -0.715667 0.090776
0.046000000 -0.715355 0.092765
0.047000000 -0.715016 0.094802
0.048000000 -0.714705 0.096784
0.049000000 -0.714367 0.098721
0.050000000 -0.714043 0.1007
0.051000000 -0.713666 0.102713
0.052000000 -0.713333 0.104692
0.053000000 -0.712991 0.106646
0.054000000 -0.712642 0.10858
0.055000000 -0.712249 0.11062
0.056000000 -0.711873 0.112528
0.057000000 -0.711469 0.114578
0.058000000 -0.711093 0.1165
0.059000000 -0.710716 0.118499
0.060000000 -0.710301 0.120423
0.061000000 -0.709954 0.122424
0.062000000 -0.709523 0.124342
0.063000000 -0.709097 0.12635
0.064000000 -0.70869 0.128281
0.065000000 -0.708244 0.130276
0.066000000 -0.707827 0.132184
0.067000000 -0.707379 0.134111
0.068000000 -0.706968 0.136087
0.069000000 -0.706471 0.1381
0.070000000 -0.706002 0.139996
0.071000000 -0.705608 0.141927
0.072000000 -0.705109 0.143938
0.073000000 -0.7046 0.145886
0.074000000 -0.704114 0.147879
0.075000000 -0.703666 0.149756
0.076000000 -0.703177 0.151726
0.077000000 -0.702658 0.153666
0.078000000 -0.702158 0.155605
0.079000000 -0.701625 0.157521
0.080000000 -0.7012 0.159442
0.081000000 -0.7007 0.161358
0.082000000 -0.70027 0.163212
0.083000000 -0.699708 0.165197
0.084000000 -0.699125 0.167143
0.085000000 -0.698527 0.169069
0.086000000 -0.69802 0.171068
0.087000000 -0.697355 0.173004
0.088000000 -0.696851 0.174869
0.089000000 -0.696381 0.176717
0.090000000 -0.695846 0.178669
0.091000000 -0.695277 0.180565
0.092000000 -0.694647 0.182511
0.093000000 -0.694031 0.184481
0.094000000 -0.693482 0.186398
0.095000000 -0.692892 0.188302
0.096000000 -0.692254 0.190176
0.097000000 -0.691755 0.19202
0.098000000 -0.691059 0.194024
0.099000000 -0.690532 0.195829
0.100000000 -0.689863 0.197884
0.110000000 -0.68346 0.2167
0.120000000 -0.676575 0.235404
0.130000000 -0.669247 0.253764
0.140000000 -0.66142 0.272101
0.150000000 -0.65316 0.289995
0.160000000 -0.644555 0.30754
0.170000000 -0.635379 0.325196
0.180000000 -0.625854 0.342065
0.190000000 -0.615902 0.358889
0.200000000 -0.605703 0.37539
0.210000000 -0.59508 0.391589
0.220000000 -0.584167 0.40739
0.230000000 -0.572944 0.422937
0.240000000 -0.561394 0.438126
0.250000000 -0.549554 0.452843
0.260000000 -0.537393 0.467266
0.270000000 -0.524937 0.48128
0.280000000 -0.512172 0.495006
0.290000000 -0.499093 0.508199
0.300000000 -0.485481 0.521005
0.310000000 -0.471909 0.533451
0.320000000 -0.458424 0.545573
0.330000000 -0.444398 0.557218
0.340000000 -0.430106 0.568461
0.350000000 -0.415184 0.579347
0.360000000 -0.39997 0.589966
0.370000000 -0.38438 0.60023
0.380000000 -0.369145 0.609987
0.390000000 -0.353833 0.618982
0.400000000 -0.337856 0.627948
0.410000000 -0.321798 0.636388
0.420000000 -0.305438 0.644601
0.430000000 -0.288783 0.652309
0.440000000 -0.272271 0.659076
0.450000000 -0.255465 0.665497
0.460000000 -0.238338 0.671736
0.470000000 -0.221094 0.677596
0.480000000 -0.20368 0.682834
0.490000000 -0.186186 0.687665
0.500000000 -0.16857 0.692056
0.510000000 -0.150885 0.696124
0.520000000 -0.133102 0.699632
0.530000000 -0.115315 0.70286
0.540000000 -0.09743 0.705401
0.550000000 -0.079463 0.707672
0.560000000 -0.061599 0.709364
0.570000000 -0.043714 0.710789
0.580000000 -0.025788 0.711661
0.590000000 -0.007879 0.712058
0.600000000 0.010003 0.712186
0.610000000 0.027936 0.711778
0.620000000 0.045718 0.711106
0.630000000 0.063518 0.710116
0.640000000 0.081205 0.708695
0.650000000 0.098769 0.706937
0.660000000 0.116168 0.704849
0.670000000 0.133486 0.702287
0.680000000 0.15068 0.699484
0.690000000 0.167675 0.696137
0.700000000 0.184546 0.69232
0.710000000 0.201258 0.688105
0.720000000 0.217793 0.683463
0.730000000 0.234284 0.678374
0.740000000 0.25057 0.672981
0.750000000 0.266735 0.667093
0.760000000 0.282801 0.660863
0.770000000 0.298697 0.654209
0.780000000 0.314396 0.647184
0.790000000 0.329941 0.639767
0.800000000 0.345286 0.631849
0.810000000 0.3604 0.623557
0.820000000 0.375239 0.614884
0.830000000 0.390031 0.605713
0.840000000 0.404423 0.596203
0.850000000 0.418687 0.586154
0.860000000 0.432645 0.575907
0.870000000 0.446464 0.565174
0.880000000 0.460068 0.554128
0.890000000 0.473504 0.542878
0.900000000 0.486672 0.53125
0.910000000 0.499527 0.519469
0.920000000 0.512046 0.507369
0.930000000 0.524219 0.495054
0.940000000 0.536118 0.482508
0.950000000 0.54763 0.469783
0.960000000 0.558864 0.456755
0.970000000 0.569715 0.443556
0.980000000 0.580109 0.43019
0.990000000 0.590317 0.41665
1.000000000 0.600095 0.40288
1.010000000 0.609507 0.388956
1.020000000 0.61867 0.374915
1.030000000 0.627524 0.360736
1.040000000 0.636007 0.346377
1.050000000 0.644083 0.331894
1.060000000 0.651917 0.317285
1.070000000 0.659271 0.302553
1.080000000 0.666356 0.287679
1.090000000 0.672982 0.272661
1.100000000 0.679227 0.257395
1.110000000 0.685087 0.241982
1.120000000 0.690614 0.226468
1.130000000 0.695833 0.210794
1.140000000 0.700627 0.194888
1.150000000 0.705106 0.178799
1.160000000 0.70913 0.162663
1.170000000 0.712715 0.146254
1.180000000 0.715903 0.129603
1.190000000 0.717613 0.113127
1.200000000 0.720226 0.098105
1.210000000 0.722942 0.081688
1.220000000 0.72484 0.065059
1.230000000 0.726214 0.048366
1.240000000 0.727152 0.031587
1.250000000 0.727677 0.014886
1.260000000 0.727703 -0.001817
1.270000000 0.727415 -0.018527
1.280000000 0.726714 -0.035199
1.290000000 0.725585 -0.051847
1.300000000 0.724166 -0.068402
1.310000000 0.722417 -0.084854
1.320000000 0.720332 -0.101182
1.330000000 0.717803 -0.117435
1.340000000 0.714975 -0.133613
1.350000000 0.71185 -0.149594
1.360000000 0.708302 -0.165519
1.370000000 0.704499 -0.18128
1.380000000 0.700269 -0.196851
1.390000000 0.695801 -0.212434
1.400000000 0.691112 -0.227751
1.410000000 0.685994 -0.243039
1.420000000 0.680558 -0.258067
1.430000000 0.67489 -0.272993
1.440000000 0.668857 -0.287658
1.450000000 0.662638 -0.30223
1.460000000 0.65599 -0.316647
1.470000000 0.649085 -0.33085
1.480000000 0.641801 -0.344869
1.490000000 0.634227 -0.358762
1.500000000 0.626307 -0.372444
1.510000000 0.618111 -0.386006
1.520000000 0.609505 -0.399299
1.530000000 0.600583 -0.41249
1.540000000 0.591291 -0.425474
1.550000000 0.581754 -0.438259
1.560000000 0.571809 -0.450916
1.570000000 0.561541 -0.463232
1.580000000 0.550996 -0.475423
1.590000000 0.540053 -0.487428
1.600000000 0.528805 -0.499138
1.610000000 0.51732 -0.510609
1.620000000 0.505476 -0.521888
1.630000000 0.493379 -0.532879
1.640000000 0.480966 -0.543633
1.650000000 0.46842 -0.554085
1.660000000 0.455484 -0.564188
1.670000000 0.442372 -0.574013
1.680000000 0.42904 -0.583493
1.690000000 0.415458 -0.592713
1.700000000 0.401651 -0.601513
1.710000000 0.387672 -0.609936
1.720000000 0.373485 -0.618137
1.730000000 0.359219 -0.625949
1.740000000 0.344684 -0.633472
1.750000000 0.33008 -0.640677
1.760000000 0.315361 -0.647495
1.770000000 0.300489 -0.653989
1.780000000 0.285488 -0.660149
1.790000000 0.270402 -0.665959
1.800000000 0.255293 -0.671432
1.810000000 0.240045 -0.676508
1.820000000 0.224678 -0.68131
1.830000000 0.209227 -0.685721
1.840000000 0.193762 -0.689778
1.850000000 0.178107 -0.693565
1.860000000 0.162468 -0.696982
1.870000000 0.146638 -0.700046
1.880000000 0.130799 -0.702877
1.890000000 0.114896 -0.705302
1.900000000 0.098961 -0.707456
1.910000000 0.082931 -0.709061
1.920000000 0.066848 -0.710474
1.930000000 0.050779 -0.711485
1.940000000 0.034648 -0.71202
1.950000000 0.018438 -0.712201
1.960000000 0.002232 -0.711882
1.970000000 -0.013994 -0.711123
1.980000000 -0.03032 -0.709988
1.990000000 -0.046635 -0.708433
2.000000000 -0.06293 -0.706473
2.010000000 -0.079259 -0.704143
2.020000000 -0.095544 -0.701402
2.030000000 -0.111767 -0.698342
2.040000000 -0.128013 -0.694829
2.050000000 -0.144156 -0.690873
2.060000000 -0.160232 -0.686575
2.070000000 -0.176224 -0.681831
2.080000000 -0.191982 -0.676803
2.090000000 -0.207728 -0.671275
2.100000000 -0.223401 -0.66533
2.110000000 -0.238982 -0.659141
2.120000000 -0.254314 -0.652599
2.130000000 -0.269553 -0.645697
2.140000000 -0.284748 -0.638571
2.150000000 -0.299765 -0.631092
2.160000000 -0.314493 -0.623346
2.170000000 -0.329039 -0.615342
2.180000000 -0.343278 -0.606936
2.190000000 -0.357383 -0.598295
2.200000000 -0.371109 -0.589405
2.210000000 -0.384615 -0.580168
2.220000000 -0.39784 -0.570552
2.230000000 -0.410739 -0.560716
2.240000000 -0.423381 -0.550513
2.250000000 -0.435786 -0.540131
2.260000000 -0.447906 -0.529394
2.270000000 -0.459753 -0.518417
2.280000000 -0.471242 -0.507199
2.290000000 -0.482532 -0.495541
2.300000000 -0.493513 -0.483741
2.310000000 -0.504128 -0.471632
2.320000000 -0.514446 -0.45932
2.330000000 -0.524355 -0.44672
2.340000000 -0.534058 -0.433854
2.350000000 -0.543342 -0.420477
2.360000000 -0.552387 -0.407076
2.370000000 -0.56115 -0.393147
2.380000000 -0.569627 -0.378958
2.390000000 -0.577741 -0.364618
2.400000000 -0.585691 -0.349909
2.410000000 -0.593248 -0.335002
2.420000000 -0.600536 -0.319905
2.430000000 -0.60737 -0.304605
2.440000000 -0.613981 -0.289071
2.450000000 -0.620227 -0.273357
2.460000000 -0.626009 -0.257391
2.470000000 -0.631348 -0.24132
2.480000000 -0.636456 -0.225105
2.490000000 -0.641101 -0.208722
2.500000000 -0.64543 -0.192302
2.510000000 -0.649338 -0.175822
2.520000000 -0.652856 -0.1592
2.530000000 -0.656024 -0.142544
2.540000000 -0.658843 -0.126022
2.550000000 -0.661337 -0.109389
2.560000000 -0.663525 -0.092897
2.570000000 -0.665227 -0.076441
2.580000000 -0.66651 -0.060072
2.590000000 -0.667373 -0.043711
2.600000000 -0.667765 -0.027434
2.610000000 -0.667827 -0.011141
2.620000000 -0.667366 0.004967
2.630000000 -0.666474 0.021066
2.640000000 -0.665244 0.037163
2.650000000 -0.663625 0.053107
2.660000000 -0.661629 0.069088
2.670000000 -0.659162 0.085044
2.680000000 -0.656252 0.100969
2.690000000 -0.652842 0.116703
2.700000000 -0.6489 0.132491
2.710000000 -0.64436 0.148123
2.720000000 -0.639369 0.163438
2.730000000 -0.633829 0.178627
2.740000000 -0.627957 0.193478
2.750000000 -0.62187 0.20816
2.760000000 -0.615628 0.222763
2.770000000 -0.609197 0.23746
2.780000000 -0.602311 0.252142
2.790000000 -0.59509 0.267002
2.800000000 -0.58744 0.281896
2.810000000 -0.579305 0.296662
2.820000000 -0.570731 0.311438
2.830000000 -0.561843 0.325895
2.840000000 -0.55243 0.34025
2.850000000 -0.542726 0.35433
2.860000000 -0.532688 0.368165
2.870000000 -0.522204 0.38175
2.880000000 -0.511444 0.395063
2.890000000 -0.500344 0.408119
2.900000000 -0.488918 0.42089
2.910000000 -0.477293 0.433365
2.920000000 -0.465454 0.44548
2.930000000 -0.453357 0.45732
2.940000000 -0.44106 0.468807
2.950000000 -0.428548 0.479999
2.960000000 -0.415802 0.490699
2.970000000 -0.402916 0.501152
2.980000000 -0.389731 0.511244
2.990000000 -0.376436 0.520975
3.000000000 -0.362867 0.530352
3.010000000 -0.349123 0.53936
3.020000000 -0.335222 0.547976
3.030000000 -0.32109 0.556233
3.040000000 -0.30683 0.564117
3.050000000 -0.292329 0.571643
3.060000000 -0.277715 0.578783
3.070000000 -0.262829 0.585521
3.080000000 -0.247923 0.591899
3.090000000 -0.232637 0.597893
3.100000000 -0.217356 0.603418
3.110000000 -0.201858 0.608539
3.120000000 -0.186203 0.613292
3.130000000 -0.170378 0.617647
3.140000000 -0.154439 0.621497
3.150000000 -0.138323 0.624998
3.160000000 -0.122109 0.628082
3.170000000 -0.105747 0.630566
3.180000000 -0.089279 0.63274
3.190000000 -0.072675 0.634465
3.200000000 -0.055986 0.635702
3.210000000 -0.039211 0.636544
3.220000000 -0.02233 0.636918
3.230000000 -0.005392 0.636885
3.240000000 0.011583 0.636362
3.250000000 0.028562 0.635639
3.260000000 0.045509 0.634344
3.270000000 0.062445 0.632654
3.280000000 0.079312 0.63067
3.290000000 0.096076 0.628227
3.300000000 0.112703 0.62547
3.310000000 0.129206 0.622289
3.320000000 0.145575 0.618769
3.330000000 0.161739 0.614921
3.340000000 0.177775 0.610708
3.350000000 0.193652 0.606305
3.360000000 0.209206 0.601462
3.370000000 0.224549 0.596408
3.380000000 0.239858 0.591118
3.390000000 0.254651 0.585514
3.400000000 0.269351 0.579599
3.410000000 0.283779 0.5734
3.420000000 0.297879 0.566871
3.430000000 0.311643 0.560008
3.440000000 0.325226 0.552833
3.450000000 0.33846 0.545181
3.460000000 0.351527 0.537199
3.470000000 0.364312 0.5289
3.480000000 0.376925 0.520112
3.490000000 0.38938 0.510905
3.500000000 0.401613 0.501425
3.510000000 0.413657 0.491536
3.520000000 0.425397 0.481398
3.530000000 0.436983 0.470761
3.540000000 0.448331 0.459825
3.550000000 0.459401 0.448532
3.560000000 0.47033 0.436892
3.570000000 0.480905 0.424853
3.580000000 0.491265 0.412594
3.590000000 0.501314 0.400087
3.600000000 0.51113 0.387177
3.610000000 0.520649 0.374025
3.620000000 0.529949 0.36063
3.630000000 0.538912 0.347137
3.640000000 0.547688 0.333457
3.650000000 0.556052 0.31956
3.660000000 0.564164 0.305657
3.670000000 0.571839 0.29153
3.680000000 0.579206 0.277424
3.690000000 0.586149 0.263076
3.700000000 0.592671 0.248617
3.710000000 0.598851 0.234099
3.720000000 0.604599 0.219422
3.730000000 0.609906 0.204686
3.740000000 0.614896 0.189767
3.750000000 0.619494 0.174824
3.760000000 0.623814 0.159756
3.770000000 0.627704 0.144683
3.780000000 0.631281 0.129545
3.790000000 0.634506 0.114339
3.800000000 0.637323 0.099131
3.810000000 0.639815 0.083875
3.820000000 0.641848 0.068582
3.830000000 0.643462 0.053245
3.840000000 0.644752 0.037885
3.850000000 0.645609 0.022426
3.860000000 0.646067 0.006886
3.870000000 0.646216 -0.008592
3.880000000 0.646116 -0.024155
3.890000000 0.645573 -0.039711
3.900000000 0.64466 -0.05522
3.910000000 0.643487 -0.070823
3.920000000 0.642008 -0.086205
3.930000000 0.63999 -0.10166
3.940000000 0.637617 -0.116996
3.950000000 0.634809 -0.132228
3.960000000 0.631533 -0.14748
3.970000000 0.627841 -0.162538
3.980000000 0.623639 -0.177689
3.990000000 0.619021 -0.192813
4.000000000 0.613994 -0.207766
4.010000000 0.608526 -0.222728
4.020000000 0.602747 -0.237643
4.030000000 0.596613 -0.25235
4.040000000 0.590078 -0.267058
4.050000000 0.583282 -0.281499
4.060000000 0.576092 -0.295881
4.070000000 0.568625 -0.309955
4.080000000 0.560894 -0.323899
4.090000000 0.552858 -0.337594
4.100000000 0.54445 -0.351134
4.110000000 0.535806 -0.364403
4.120000000 0.526827 -0.3775
4.130000000 0.517716 -0.390395
4.140000000 0.508335 -0.402998
4.150000000 0.498921 -0.41542
4.160000000 0.48929 -0.427567
4.170000000 0.479488 -0.439382
4.180000000 0.469532 -0.450991
4.190000000 0.459436 -0.462173
4.200000000 0.449076 -0.473067
4.210000000 0.438509 -0.483638
4.220000000 0.427625 -0.493901
4.230000000 0.416554 -0.503799
4.240000000 0.405036 -0.513473
4.250000000 0.393339 -0.522819
4.260000000 0.381364 -0.531869
4.270000000 0.369112 -0.540581
4.280000000 0.356542 -0.549055
4.290000000 0.34376 -0.557251
4.300000000 0.330622 -0.565126
4.310000000 0.317233 -0.572716
4.320000000 0.303623 -0.579987
4.330000000 0.289899 -0.586997
4.340000000 0.275914 -0.593616
4.350000000 0.261688 -0.599916
4.360000000 0.247397 -0.605897
4.370000000 0.232853 -0.611635
4.380000000 0.218159 -0.616971
4.390000000 0.203384 -0.621945
4.400000000 0.188533 -0.626697
4.410000000 0.173645 -0.631079
4.420000000 0.158718 -0.635288
4.430000000 0.143897 -0.639021
4.440000000 0.129049 -0.64246
4.450000000 0.11421 -0.645543
4.460000000 0.099465 -0.648223
4.470000000 0.084589 -0.650511
4.480000000 0.069832 -0.652441
4.490000000 0.055026 -0.654007
4.500000000 0.040161 -0.655106
4.510000000 0.025309 -0.655872
4.520000000 0.010503 -0.656241
4.530000000 -0.004325 -0.656292
4.540000000 -0.019161 -0.655857
4.550000000 -0.034 -0.655109
4.560000000 -0.048865 -0.654007
4.570000000 -0.063686 -0.652609
4.580000000 -0.078502 -0.650833
4.590000000 -0.093275 -0.648813
4.600000000 -0.108015 -0.646496
4.610000000 -0.122678 -0.643822
4.620000000 -0.137326 -0.640824
4.630000000 -0.151889 -0.637522
4.640000000 -0.166451 -0.633944
4.650000000 -0.180843 -0.630074
4.660000000 -0.195179 -0.62594
4.670000000 -0.209414 -0.621436
4.680000000 -0.223492 -0.61671
4.690000000 -0.237462 -0.611654
4.700000000 -0.251274 -0.606256
4.710000000 -0.264938 -0.600578
4.720000000 -0.278467 -0.594552
4.730000000 -0.291795 -0.588208
4.740000000 -0.304958 -0.581513
4.750000000 -0.317962 -0.574476
4.760000000 -0.330781 -0.567134
4.770000000 -0.343391 -0.559327
4.780000000 -0.355725 -0.551259
4.790000000 -0.367915 -0.542772
4.800000000 -0.379928 -0.533962
4.810000000 -0.391592 -0.524828
4.820000000 -0.40313 -0.515324
4.830000000 -0.414486 -0.5055
4.840000000 -0.425573 -0.495443
4.850000000 -0.436514 -0.484957
4.860000000 -0.447267 -0.474297
4.870000000 -0.457794 -0.463427
4.880000000 -0.468218 -0.45223
4.890000000 -0.478372 -0.440928
4.900000000 -0.488372 -0.429449
4.910000000 -0.498119 -0.417839
4.920000000 -0.507564 -0.406048
4.930000000 -0.516755 -0.39412
4.940000000 -0.52568 -0.382091
4.950000000 -0.534243 -0.369854
4.960000000 -0.542504 -0.357492
4.970000000 -0.550562 -0.345052
4.980000000 -0.55828 -0.332392
4.990000000 -0.565728 -0.31966
5.000000000 -0.572745 -0.306919
5.010000000 -0.579525 -0.294064
5.020000000 -0.585961 -0.281068
5.030000000 -0.592091 -0.268037
5.040000000 -0.597838 -0.254883
5.050000000 -0.603187 -0.241585
5.060000000 -0.608183 -0.228118
5.070000000 -0.612899 -0.214408
5.080000000 -0.61715 -0.200617
5.090000000 -0.621149 -0.186634
5.100000000 -0.62478 -0.172387
5.110000000 -0.628089 -0.157889
5.120000000 -0.631138 -0.143248
5.130000000 -0.633868 -0.128419
5.140000000 -0.636359 -0.113383
5.150000000 -0.63856 -0.098337
5.160000000 -0.640417 -0.083198
5.170000000 -0.64196 -0.067944
5.180000000 -0.64313 -0.05274
5.190000000 -0.643994 -0.037459
5.200000000 -0.64427 -0.022155
5.210000000 -0.644322 -0.006885
5.220000000 -0.643951 0.008511
5.230000000 -0.6432 0.023916
5.240000000 -0.642204 0.039294
5.250000000 -0.640889 0.054716
5.260000000 -0.639224 0.069948
5.270000000 -0.637367 0.085197
5.280000000 -0.635106 0.100334
5.290000000 -0.632618 0.115193
5.300000000 -0.629792 0.129965
5.310000000 -0.626621 0.144626
5.320000000 -0.623103 0.159076
5.330000000 -0.619186 0.173468
5.340000000 -0.614902 0.187652
5.350000000 -0.610312 0.201717
5.360000000 -0.60532 0.215705
5.370000000 -0.600138 0.229608
5.380000000 -0.59461 0.243402
5.390000000 -0.588808 0.257033
5.400000000 -0.582813 0.270638
5.410000000 -0.576524 0.284007
5.420000000 -0.570057 0.297085
5.430000000 -0.563244 0.31001
5.440000000 -0.556125 0.322635
5.450000000 -0.548722 0.335002
5.460000000 -0.54084 0.347106
5.470000000 -0.532668 0.358965
5.480000000 -0.524077 0.37061
5.490000000 -0.515157 0.382046
5.500000000 -0.505865 0.39336
5.510000000 -0.496242 0.404375
5.520000000 -0.486406 0.415363
5.530000000 -0.476276 0.426127
5.540000000 -0.465939 0.436666
5.550000000 -0.455398 0.446977
5.560000000 -0.444574 0.456998
5.570000000 -0.433535 0.466793
5.580000000 -0.422151 0.476256
5.590000000 -0.410502 0.485501
5.600000000 -0.398461 0.494422
5.610000000 -0.386178 0.503153
5.620000000 -0.373561 0.511689
5.630000000 -0.360706 0.520023
5.640000000 -0.347661 0.52828
5.650000000 -0.334445 0.53636
5.660000000 -0.321106 0.544237
5.670000000 -0.3077 0.551878
5.680000000 -0.294256 0.559281
5.690000000 -0.28078 0.566299
5.700000000 -0.267191 0.573132
5.710000000 -0.253651 0.579424
5.720000000 -0.239951 0.585401
5.730000000 -0.226192 0.590939
5.740000000 -0.212411 0.596084
5.750000000 -0.19857 0.600919
5.760000000 -0.184579 0.605385
5.770000000 -0.170622 0.609523
5.780000000 -0.156639 0.613326
5.790000000 -0.142643 0.616783
5.800000000 -0.12866 0.619976
5.810000000 -0.114723 0.622789
5.820000000 -0.100802 0.625291
5.830000000 -0.086963 0.627363
5.840000000 -0.072958 0.629004
5.850000000 -0.059034 0.630156
5.860000000 -0.044932 0.630878
5.870000000 -0.03073 0.631172
5.880000000 -0.016399 0.631051
5.890000000 -0.001873 0.630648
5.900000000 0.012757 0.62989
5.910000000 0.027502 0.628858
5.920000000 0.042282 0.627467
5.930000000 0.057151 0.625818
5.940000000 0.072007 0.623769
5.950000000 0.0869 0.621358
5.960000000 0.101863 0.618658
5.970000000 0.116681 0.615567
5.980000000 0.131533 0.612098
5.990000000 0.14636 0.608198
6.000000000 0.161191 0.60395
6.010000000 0.175892 0.599408
6.020000000 0.190518 0.594499
6.030000000 0.205052 0.589344
6.040000000 0.219464 0.583882
6.050000000 0.233717 0.578208
6.060000000 0.247783 0.572269
6.070000000 0.261593 0.566027
6.080000000 0.27521 0.559595
6.090000000 0.288525 0.552993
6.100000000 0.301575 0.546024
6.110000000 0.31438 0.538785
6.120000000 0.326934 0.531233
6.130000000 0.339264 0.523464
6.140000000 0.35134 0.515379
6.150000000 0.363167 0.506982
6.160000000 0.374808 0.498459
6.170000000 0.386288 0.489603
6.180000000 0.397503 0.480546
6.190000000 0.408487 0.471196
6.200000000 0.419209 0.461574
6.210000000 0.429692 0.45171
6.220000000 0.439995 0.441526
6.230000000 0.450042 0.431004
6.240000000 0.459885 0.420192
6.250000000 0.469463 0.409092
6.260000000 0.478866 0.397595
6.270000000 0.487955 0.38585
6.280000000 0.496836 0.373713
6.290000000 0.505447 0.361418
6.300000000 0.513806 0.348772
6.310000000 0.521909 0.335969
6.320000000 0.529762 0.322926
6.330000000 0.537231 0.309688
6.340000000 0.544467 0.296335
6.350000000 0.551398 0.28271
6.360000000 0.558051 0.269021
6.370000000 0.56443 0.255165
6.380000000 0.570529 0.241163
6.390000000 0.576305 0.227157
6.400000000 0.581752 0.213083
6.410000000 0.58682 0.198888
6.420000000 0.591516 0.18468
6.430000000 0.595847 0.170466
6.440000000 0.599752 0.156191
6.450000000 0.603182 0.141923
6.460000000 0.606351 0.127579
6.470000000 0.609087 0.113102
6.480000000 0.611484 0.098604
6.490000000 0.613492 0.084068
6.500000000 0.61529 0.06945
6.510000000 0.616673 0.054802
6.520000000 0.617734 0.040183
6.530000000 0.618469 0.02552
6.540000000 0.618867 0.010858
6.550000000 0.618918 -0.003898
6.560000000 0.618647 -0.01858
6.570000000 0.617912 -0.033325
6.580000000 0.616789 -0.048076
6.590000000 0.615279 -0.062862
6.600000000 0.613462 -0.077758
6.610000000 0.611252 -0.092577
6.620000000 0.608758 -0.107579
6.630000000 0.606028 -0.122448
6.640000000 0.602942 -0.137257
6.650000000 0.599616 -0.152022
6.660000000 0.596013 -0.166536
6.670000000 0.59199 -0.180842
6.680000000 0.587669 -0.194987
6.690000000 0.582861 -0.208876
6.700000000 0.577696 -0.222618
6.710000000 0.572024 -0.236171
6.720000000 0.565997 -0.249625
6.730000000 0.559566 -0.262909
6.740000000 0.552842 -0.276136
6.750000000 0.545782 -0.289323
6.760000000 0.538442 -0.302272
6.770000000 0.5309 -0.315185
6.780000000 0.522994 -0.327862
6.790000000 0.514881 -0.340413
6.800000000 0.506458 -0.352743
6.810000000 0.49771 -0.364758
6.820000000 0.488563 -0.376522
6.830000000 0.479116 -0.388012
6.840000000 0.469227 -0.399298
6.850000000 0.458926 -0.410333
6.860000000 0.448315 -0.421128
6.870000000 0.437409 -0.431913
6.880000000 0.426278 -0.442506
6.890000000 0.414925 -0.452931
6.900000000 0.403506 -0.463153
6.910000000 0.391875 -0.473088
6.920000000 0.380104 -0.482746
6.930000000 0.368383 -0.492069
6.940000000 0.356377 -0.500939
6.950000000 0.344119 -0.509417
6.960000000 0.331769 -0.517438
6.970000000 0.319123 -0.525149
6.980000000 0.306192 -0.532564
6.990000000 0.293166 -0.539569
7.000000000 0.279845 -0.546335
7.010000000 0.266337 -0.552917
7.020000000 0.252799 -0.5592
7.030000000 0.239084 -0.565181
7.040000000 0.225336 -0.570917
7.050000000 0.211607 -0.57625
7.060000000 0.197701 -0.581162
7.070000000 0.183837 -0.585586
7.080000000 0.169742 -0.589532
7.090000000 0.155543 -0.592953
7.100000000 0.141173 -0.595895
7.110000000 0.126574 -0.598402
7.120000000 0.111791 -0.600515
7.130000000 0.096893 -0.602263
7.140000000 0.081786 -0.603758
7.150000000 0.066604 -0.605002
7.160000000 0.051316 -0.605908
7.170000000 0.036075 -0.606491
7.180000000 0.020817 -0.606716
7.190000000 0.005576 -0.606562
7.200000000 -0.009599 -0.60599
7.210000000 -0.024803 -0.604988
7.220000000 -0.039957 -0.603527
7.230000000 -0.055147 -0.601638
7.240000000 -0.070378 -0.599441
7.250000000 -0.085643 -0.596875
7.260000000 -0.100921 -0.59398
7.270000000 -0.116164 -0.590803
7.280000000 -0.131359 -0.587384
7.290000000 -0.146473 -0.583682
7.300000000 -0.161477 -0.579796
7.310000000 -0.176267 -0.575674
7.320000000 -0.19078 -0.571082
7.330000000 -0.205103 -0.566159
7.340000000 -0.219212 -0.560883
7.350000000 -0.233031 -0.555174
7.360000000 -0.24673 -0.54904
7.370000000 -0.260153 -0.542456
7.380000000 -0.273541 -0.535477
7.390000000 -0.286676 -0.528196
7.400000000 -0.299655 -0.520591
7.410000000 -0.312403 -0.512725
7.420000000 -0.324978 -0.504467
7.430000000 -0.33728 -0.496
7.440000000 -0.349406 -0.487118
7.450000000 -0.361175 -0.477961
7.460000000 -0.372774 -0.468477
7.470000000 -0.384006 -0.458607
7.480000000 -0.395053 -0.448323
7.490000000 -0.4058 -0.437819
7.500000000 -0.416324 -0.426859
7.510000000 -0.426569 -0.415634
7.520000000 -0.4367 -0.404074
7.530000000 -0.446524 -0.392269
7.540000000 -0.456221 -0.380205
7.550000000 -0.465556 -0.367984
7.560000000 -0.474683 -0.35553
7.570000000 -0.483483 -0.342853
7.580000000 -0.491893 -0.330018
7.590000000 -0.500006 -0.317035
7.600000000 -0.507673 -0.303858
7.610000000 -0.514992 -0.290361
7.620000000 -0.521995 -0.27672
7.630000000 -0.528564 -0.262978
7.640000000 -0.534776 -0.248968
7.650000000 -0.540678 -0.234851
7.660000000 -0.546215 -0.220613
7.670000000 -0.551435 -0.206186
7.680000000 -0.556211 -0.191727
7.690000000 -0.560656 -0.177117
7.700000000 -0.564702 -0.16244
7.710000000 -0.56837 -0.147619
7.720000000 -0.571677 -0.132778
7.730000000 -0.574565 -0.117807
7.740000000 -0.577112 -0.102804
7.750000000 -0.579215 -0.087709
7.760000000 -0.580989 -0.072673
7.770000000 -0.58245 -0.057545
7.780000000 -0.583485 -0.042493
7.790000000 -0.584159 -0.027468
7.800000000 -0.584485 -0.012514
7.810000000 -0.584411 0.002427
7.820000000 -0.583976 0.0172
7.830000000 -0.583162 0.031959
7.840000000 -0.581907 0.046625
7.850000000 -0.580288 0.061252
7.860000000 -0.578182 0.075774
7.870000000 -0.575825 0.0903
7.880000000 -0.57302 0.104731
7.890000000 -0.569807 0.119072
7.900000000 -0.566232 0.133327
7.910000000 -0.562198 0.147536
7.920000000 -0.557707 0.161698
7.930000000 -0.552771 0.175733
7.940000000 -0.547534 0.18977
7.950000000 -0.54176 0.203684
7.960000000 -0.535587 0.217689
7.970000000 -0.529045 0.231472
7.980000000 -0.522119 0.245227
7.990000000 -0.514885 0.258942
8.000000000 -0.507289 0.27249
8.010000000 -0.499413 0.285849
8.020000000 -0.491337 0.299033
8.030000000 -0.482999 0.312024
8.040000000 -0.474438 0.324708
8.050000000 -0.465761 0.337059
8.060000000 -0.456813 0.349079
8.070000000 -0.447664 0.360769
8.080000000 -0.438329 0.372086
8.090000000 -0.428823 0.383065
8.100000000 -0.419069 0.393819
8.110000000 -0.409285 0.404142
8.120000000 -0.399281 0.414327
8.130000000 -0.389143 0.424024
8.140000000 -0.378888 0.433413
8.150000000 -0.368418 0.442395
8.160000000 -0.357713 0.451038
8.170000000 -0.346834 0.459228
8.180000000 -0.335631 0.46711
8.190000000 -0.324052 0.474509
8.200000000 -0.312096 0.481596
8.210000000 -0.2998 0.488376
8.220000000 -0.287161 0.494893
8.230000000 -0.274183 0.501086
8.240000000 -0.260844 0.50703
8.250000000 -0.247193 0.512773
8.260000000 -0.233309 0.51838
8.270000000 -0.219189 0.523683
8.280000000 -0.204869 0.528659
8.290000000 -0.190564 0.533301
8.300000000 -0.176044 0.537705
8.310000000 -0.161443 0.54166
8.320000000 -0.146884 0.545304
8.330000000 -0.132181 0.548585
8.340000000 -0.117468 0.55147
8.350000000 -0.102848 0.554062
8.360000000 -0.0881 0.556361
8.370000000 -0.073338 0.558491
8.380000000 -0.058705 0.560254
8.390000000 -0.044166 0.561766
8.400000000 -0.029779 0.563038
8.410000000 -0.015618 0.563965
8.420000000 -0.001622 0.564487
8.430000000 0.012248 0.56459
8.440000000 0.026035 0.564242
8.450000000 0.039679 0.563456
8.460000000 0.053419 0.562199
8.470000000 0.067134 0.560499
8.480000000 0.080829 0.558289
8.490000000 0.094621 0.555785
8.500000000 0.108461 0.553015
